##TITLE=A7_without_LaCl3
##JCAMP-DX=4.24
##DATA TYPE=MASS SPECTRUM
##ORIGIN=
##OWNER=
##XUNITS=m/z
##YUNITS=Relative intensity
##$IONISATION=ESI
##$EXPERIMENT=
##$MODE=positive
##$INJECTION=OPSI
##$ANALYZER=quadrupole
##$INSTRUMENT=Adion expression CMS L
##NPOINTS=10000
##FIRSTX=15000
##LASTX=24999
##FIRSTY=434949.09217914904
##LASTY=205810394.6120043
##XFACTOR=1
##YFACTOR=1
##PEAK TABLE=(XY..XY)
15000 7425681.416985364
15001 7137847.889083237
15002 7008375.483725631
15003 6628765.795380653
15004 5218696.6043744115
15005 4943731.541648478
15006 4637189.47303983
15007 4584879.971597659
15008 4531787.093743105
15009 4584834.685458551
15010 4647994.21818593
15011 4732634.983855166
15012 5070520.767531636
15013 5080663.338871879
15014 5229841.828112332
15015 5364856.668209593
15016 6136267.96809653
15017 5910518.044450841
15018 5879293.42122763
15019 6187545.290699492
15020 6624441.821225923
15021 7230100.477155688
15022 7773770.572605057
15023 8077154.490954299
15024 8390426.061581904
15025 8476401.279462397
15026 8368143.092359039
15027 8247803.741317057
15028 8239697.328799922
15029 8366455.74911532
15030 8260619.627353969
15031 8260003.212398292
15032 7784649.461573904
15033 7316459.6079232795
15034 5356518.601752718
15035 4953975.088748313
15036 4674444.64108152
15037 5238857.035529154
15038 5119644.823099594
15039 5185369.30131109
15040 5391794.167421216
15041 5703548.312749559
15042 6187822.7490672665
15043 6730230.97540696
15044 7181054.966642185
15045 7303688.94501206
15046 4034062.7391645275
15047 3636379.4626330356
15048 3785424.3887711694
15049 4044844.318471126
15050 5860923.881998792
15051 6103981.784138607
15052 6308412.67953473
15053 6454275.507624576
15054 6572785.711064644
15055 6850199.438835076
15056 7181652.798121604
15057 7597162.783131651
15058 7901112.74825561
15059 8178270.207792026
15060 10011222.379608812
15061 10176684.481578795
15062 10421790.021549365
15063 10604781.29739749
15064 12813306.325123318
15065 13100047.444721293
15066 13179614.235149993
15067 12132701.194491064
15068 12144968.361524986
15069 9616660.866110938
15070 7834110.911610739
15071 7243575.74090281
15072 6611618.058282581
15073 6000897.531612696
15074 4028635.50505333
15075 3734995.260480685
15076 3650039.57411728
15077 3650972.4032501583
15078 3807196.29952869
15079 4048216.5132526923
15080 4272532.887437785
15081 4485607.624361143
15082 4664999.158147318
15083 4790912.642857979
15084 4907770.764953362
15085 6683996.965914231
15086 6698578.590069606
15087 6692535.612189988
15088 6725336.789170718
15089 6847979.528836251
15090 5194765.814145822
15091 5410901.585859844
15092 6965554.713626967
15093 7641187.485783273
15094 7606469.3035831405
15095 7438343.833016688
15096 7136184.373100159
15097 6698489.754359351
15098 5595058.797538659
15099 4928536.201185547
15100 4367165.312316166
15101 3934091.013433983
15102 3511853.571018254
15103 3281641.2414157544
15104 3157544.6695901942
15105 3357705.098730078
15106 3367337.3111840375
15107 3428099.918443165
15108 3508067.5670964774
15109 3599676.758113538
15110 3710465.4082469046
15111 3815165.011037502
15112 4389428.513605742
15113 4052841.7124713967
15114 4573767.982318069
15115 4612703.901670345
15116 4841446.7404986415
15117 5248996.592994311
15118 5697332.025767717
15119 6300315.970776069
15120 6893572.022057705
15121 6829980.225887977
15122 6624142.469031895
15123 6270435.033972534
15124 5857975.046543515
15125 4953039.76883728
15126 4818667.685843954
15127 5187374.352996548
15128 5415752.335299224
15129 5385454.565152187
15130 4594868.642323
15131 4717076.010101624
15132 4823222.067796169
15133 4962184.208490186
15134 5168219.939585605
15135 5375675.18902921
15136 5585679.892043532
15137 6065382.734081647
15138 7692956.273267206
15139 7467135.050935508
15140 7025660.959996768
15141 5871380.6143974075
15142 5051808.521612378
15143 4759378.597868188
15144 4719348.450524849
15145 4835928.963558021
15146 5115728.50951903
15147 5296296.286906739
15148 4620151.61638832
15149 4792543.456993365
15150 5054207.207542774
15151 5583062.125098592
15152 6355576.995069339
15153 7090356.355904029
15154 5676298.343375615
15155 6017546.554203052
15156 6240935.3207174195
15157 9005160.784695746
15158 8843383.596684897
15159 8613459.182237703
15160 8276815.503432522
15161 7811982.88668612
15162 8322933.721035283
15163 7801343.905675377
15164 7288934.54348626
15165 8305328.962482262
15166 7670590.345878888
15167 7017660.92018788
15168 6405621.346124318
15169 5940339.2526072
15170 4604915.428847324
15171 4339873.194023745
15172 4132836.6156426375
15173 3996500.2619351773
15174 3882308.432496221
15175 4446404.780933105
15176 3723736.640557778
15177 3652893.6745491573
15178 3734026.8714387636
15179 3384149.8012460205
15180 3493991.23698602
15181 3697560.2314124526
15182 4298394.491855666
15183 4693175.51135917
15184 5632690.836311703
15185 5862746.662742363
15186 5316447.935804276
15187 5056278.991343507
15188 4081966.6989096073
15189 4344419.526981275
15190 3841591.2722624
15191 3200210.841677458
15192 2909733.106928883
15193 2701710.7425349895
15194 2618399.8081354923
15195 2699382.488999679
15196 2884991.556864466
15197 3559988.897115469
15198 3248210.9901813255
15199 3637670.438567622
15200 3864799.8467929596
15201 4100999.998527771
15202 4787593.856223026
15203 4679657.55542927
15204 4523252.537206501
15205 4183364.4821934374
15206 3641070.8525808025
15207 3424955.6548395054
15208 3258969.921746474
15209 3220975.653821252
15210 3341242.340693888
15211 3436088.9564074273
15212 3545400.4946474503
15213 3735804.6306174085
15214 3896014.632654643
15215 4254833.455299788
15216 4621189.238802288
15217 5805813.403838248
15218 6436061.970499327
15219 6916286.300972622
15220 7587955.76930189
15221 7829758.124935484
15222 8251699.777636101
15223 9056007.052047614
15224 10091955.082537442
15225 11409270.528596653
15226 12312872.03822975
15227 12963431.22428756
15228 13343532.164785093
15229 13429640.038229043
15230 13292328.395970073
15231 12958049.024141796
15232 11359677.505263144
15233 9266505.72820551
15234 6780219.414985784
15235 7799022.354452254
15236 7575882.868356577
15237 7707111.658506884
15238 9884795.170438712
15239 10154440.164610663
15240 11301994.443043848
15241 11316183.085731357
15242 11262265.877462165
15243 11158947.94337015
15244 11081068.066507349
15245 10920905.311276581
15246 10776718.690649552
15247 10524649.53311111
15248 10133436.137244258
15249 8922417.75937194
15250 8476134.917620493
15251 8113968.592688799
15252 7492468.462827098
15253 7222092.399663228
15254 6825222.592865462
15255 6509808.059302108
15256 6204474.977307946
15257 5901767.751100091
15258 5614987.192971575
15259 5088450.477458723
15260 4645746.698130351
15261 4245733.815597898
15262 3913824.5567966835
15263 3002863.0163093135
15264 2422858.6475669844
15265 2239924.7940598424
15266 2006962.0998424771
15267 1880199.1195095668
15268 1881199.471231106
15269 1983403.3933687774
15270 2172185.670823035
15271 2841405.3967866553
15272 3421561.0080294735
15273 4073103.6007657107
15274 5711375.91431568
15275 6582102.189864559
15276 7455430.02988017
15277 7954710.891100526
15278 8261288.844118936
15279 8296800.923323812
15280 7932746.640353362
15281 7742364.378762769
15282 7881114.247145406
15283 6995151.990915905
15284 6936722.284441559
15285 6639710.4549765205
15286 6805083.854550595
15287 7019090.618102505
15288 7305611.512035775
15289 7489154.925671922
15290 7558131.421325958
15291 7337567.507674584
15292 7013447.912026557
15293 6400134.72077748
15294 6079920.989225785
15295 4904360.286095595
15296 3488802.1444120463
15297 3677513.981080797
15298 2333480.121855232
15299 2548501.888126607
15300 2783572.9914904074
15301 3022737.389411224
15302 5715960.444571661
15303 5791107.915663223
15304 6400888.630273034
15305 6277744.407286822
15306 6108896.292698802
15307 6062144.967086119
15308 6085661.348428342
15309 6180752.3329465715
15310 6184509.273823086
15311 6035478.196720225
15312 5660969.872236398
15313 5213912.331214393
15314 4682983.603449082
15315 4221866.100050131
15316 3899315.7833213285
15317 3736942.706228149
15318 3571179.308052398
15319 3430064.3136412003
15320 3319655.6340946555
15321 4079578.536422437
15322 3895126.6146155912
15323 3743599.2342307195
15324 3599083.3683671905
15325 3499153.983436691
15326 3392995.361997408
15327 3364190.4443132286
15328 3338698.9947136403
15329 3319962.9019845845
15330 3296346.060354446
15331 3255677.358056824
15332 3207814.9601386986
15333 3190915.4508271143
15334 3261508.2180233942
15335 3397406.9997050576
15336 3633542.6490377183
15337 3895796.97190387
15338 4179222.0249458165
15339 4394806.021929881
15340 4518237.048508055
15341 4552343.651687588
15342 5184229.288478309
15343 5057992.685938574
15344 5073129.239698169
15345 4719701.456740446
15346 4395219.53468311
15347 3928916.6771554435
15348 3911170.2311673984
15349 3292181.932149617
15350 3628938.492460216
15351 3597122.894953982
15352 3503511.6783800735
15353 3360793.355867544
15354 3048992.4669788703
15355 2892132.2517420845
15356 2826751.549551916
15357 3275456.6823806805
15358 3349093.813852006
15359 3707064.2174084145
15360 3930693.9896904
15361 4170609.0053158756
15362 4249658.364109654
15363 4145952.878158396
15364 4130852.880742591
15365 4103516.7839071522
15366 4067386.868896122
15367 4066425.4501757594
15368 3839181.809523414
15369 4008351.09956928
15370 4301252.386675164
15371 4602786.945678524
15372 4971732.163683724
15373 5103554.495282382
15374 4436633.773325965
15375 3287831.626976237
15376 3115711.0642886357
15377 2920360.518561594
15378 2824576.142962862
15379 2786392.977464582
15380 2803755.943274335
15381 2885722.198176498
15382 3074703.077751016
15383 3303010.008089689
15384 3546821.4707236406
15385 3833615.438520765
15386 4259127.430657192
15387 7796579.526271472
15388 8287201.329367942
15389 8484211.974882383
15390 8664592.152058363
15391 9496469.859866152
15392 9553411.586029503
15393 8144189.961211687
15394 7841334.4733818825
15395 6334981.5101523725
15396 5914144.720196373
15397 5454547.422186448
15398 4999640.499926239
15399 4562984.256867551
15400 3502987.7517939517
15401 3682015.1724912054
15402 3705131.0252886997
15403 3500217.577837305
15404 3335619.958454143
15405 3207378.157653413
15406 3100501.9598104483
15407 3013121.726674164
15408 2948855.476498835
15409 2984613.5686629373
15410 2923444.182957655
15411 2759623.035470508
15412 2632344.0163758006
15413 2714071.598397051
15414 2897297.5828733747
15415 3796342.859584198
15416 4435640.08452876
15417 4576213.39271491
15418 4512271.912522289
15419 4542106.323160868
15420 4633191.435891619
15421 4816737.170103725
15422 5008560.027730556
15423 5648831.2191864215
15424 6000166.767789346
15425 6390240.0070166765
15426 6847763.432010621
15427 8229430.06370182
15428 8758286.554022053
15429 8656756.164853295
15430 8576365.095768794
15431 7676143.968177772
15432 7256608.681665429
15433 6985044.630155548
15434 6992500.437967002
15435 7258699.18319129
15436 8417011.837811831
15437 9233804.082152247
15438 9639033.588264123
15439 10078370.190876374
15440 10591775.695397634
15441 10892562.446225397
15442 11020932.976245051
15443 10923810.725833958
15444 10629538.036865927
15445 10127026.075821707
15446 9161245.364222772
15447 8534249.614847375
15448 7315724.369744859
15449 5659315.540124433
15450 5112739.523445636
15451 5317645.083493535
15452 4716999.439495176
15453 4692089.681426287
15454 3963138.218391085
15455 3828014.2031973153
15456 3552997.060539184
15457 3273916.8100252273
15458 3161604.7389083523
15459 2968707.4048138396
15460 2947176.821968754
15461 3134550.680390498
15462 3165792.877359836
15463 3327863.3629307435
15464 3596775.943825249
15465 4028850.0581643214
15466 4765290.559630394
15467 4916109.381229755
15468 4497119.612739421
15469 4636450.742859356
15470 5643485.246084208
15471 6037840.428636862
15472 5697094.348934947
15473 4775889.613882011
15474 4422116.228065984
15475 4180928.536887404
15476 4088550.3916355283
15477 3896980.4752068613
15478 3788694.7359906835
15479 3811788.223461653
15480 3968434.7531025643
15481 4175042.78550217
15482 4036443.980949117
15483 4616719.605471269
15484 4687413.070580961
15485 5052449.180466811
15486 5383628.497866516
15487 6335408.987146276
15488 6882607.936022742
15489 7314967.614562276
15490 7840105.286412094
15491 8535862.94403102
15492 8517224.768459978
15493 8742274.046286406
15494 8026372.459672886
15495 7757581.759217075
15496 6224097.672828198
15497 3179568.126415788
15498 2994159.3744195327
15499 2931430.6136965537
15500 2948865.0265791025
15501 2996968.092665272
15502 3015967.5464255707
15503 3007209.1743786274
15504 3001604.4728661864
15505 3005206.3614190235
15506 2994032.808508593
15507 2947564.3347046073
15508 2852718.916727956
15509 2737297.7070155498
15510 2619166.139231167
15511 2514861.8976017046
15512 2413989.827919913
15513 2295753.898362689
15514 2172051.8330437164
15515 2044640.218164466
15516 1950071.4545712164
15517 1883704.4049303627
15518 2293503.812565
15519 2340215.8001960455
15520 3811337.577661134
15521 4009269.021379915
15522 4237813.993639646
15523 5439105.105131264
15524 5959373.757910907
15525 6491583.654212759
15526 7044324.515920505
15527 7553783.777274534
15528 7917963.82716524
15529 7758696.944322022
15530 7594148.539136186
15531 7191942.5195533205
15532 6714629.326269937
15533 5304571.556899019
15534 5062145.575574731
15535 4833890.132371598
15536 4785968.4438588265
15537 4838648.979920674
15538 5780905.319410712
15539 5950650.759856403
15540 6268259.525489155
15541 6733542.045499625
15542 7335598.740183336
15543 8026199.7487815395
15544 8749937.366189385
15545 9405880.321765114
15546 9967209.888344122
15547 10732066.915517218
15548 10872652.597985525
15549 11967725.388740294
15550 11660267.762907
15551 11293772.042956183
15552 10961884.403691914
15553 10424747.231975596
15554 9765702.992467633
15555 9400238.469604868
15556 9172716.261432067
15557 8807807.091901943
15558 7435273.800473332
15559 7076270.477424468
15560 6733893.507367167
15561 6654310.152866678
15562 6449465.304684501
15563 6359881.211243902
15564 6265017.779117071
15565 6178288.5221273955
15566 5833937.181089234
15567 5312726.583068432
15568 4957647.518774702
15569 4558742.139451384
15570 4020091.6306885723
15571 3979844.486924422
15572 3346497.976243879
15573 3433031.616242363
15574 3863140.388478943
15575 4199955.539077438
15576 4400587.683318461
15577 4618879.704971871
15578 4904109.177474021
15579 4795612.444653877
15580 5056065.258033359
15581 5237623.0717240935
15582 5304022.367147133
15583 5278501.26914381
15584 5172631.1360029
15585 5015603.751646332
15586 4836425.73436268
15587 4673938.801790823
15588 4893504.625271845
15589 4760103.169419872
15590 4641951.3456958365
15591 4601974.601625534
15592 4575913.9816805
15593 4579740.653364311
15594 4531312.086339471
15595 4433795.362196589
15596 3893003.9071850977
15597 3703588.6613415647
15598 3720441.6481294692
15599 3583797.3088790444
15600 3581981.0562866502
15601 3674610.728877448
15602 3863988.0309249964
15603 3954647.411656713
15604 4520285.711821312
15605 5251810.949251437
15606 5098990.524509808
15607 5143226.777488234
15608 5600067.833172999
15609 5583352.139606158
15610 5735651.936972336
15611 5599767.2913388945
15612 5810110.009987624
15613 5689196.958581748
15614 6185105.568331362
15615 5570194.907795737
15616 5611576.177033299
15617 6547435.361845211
15618 6220879.127008984
15619 6341304.223620558
15620 6308360.558094046
15621 6232812.56638427
15622 5680429.733840981
15623 4641405.94342176
15624 4368568.39233362
15625 4191547.3317783396
15626 3918316.0510658864
15627 3666751.353698488
15628 3676768.6640191176
15629 3454553.275934798
15630 3444527.2749195946
15631 3461606.2029147083
15632 3953235.1984163816
15633 4001669.849711838
15634 4075588.107584511
15635 4616549.640680939
15636 4858061.314468599
15637 5141733.158514291
15638 5492397.023186549
15639 5737570.8724951595
15640 5934405.307230405
15641 6063937.278345277
15642 5906999.587877506
15643 5348369.357644653
15644 4929625.528745137
15645 5190390.585415811
15646 4261958.851289811
15647 4015368.554190676
15648 3694919.326697326
15649 3244690.4697326967
15650 3529338.283714238
15651 3521100.5144772525
15652 3633827.3231793665
15653 4189606.9069107603
15654 4316217.276200976
15655 4626492.459872861
15656 4976830.795131651
15657 5510863.770903391
15658 5893874.534824921
15659 6227182.144219604
15660 6659402.41321628
15661 6599787.51712162
15662 6610723.5830678735
15663 6359858.570521795
15664 6021033.280942494
15665 5560681.797623629
15666 5110198.130636864
15667 4726911.617780734
15668 4507434.742467825
15669 4270542.081169597
15670 4238453.70092037
15671 4517324.591867702
15672 5198177.867305372
15673 5473324.091289348
15674 5709295.270901022
15675 5832529.014471666
15676 5951873.804131841
15677 5313224.324706385
15678 4485910.927174688
15679 4270550.684248059
15680 4236297.425252542
15681 4260276.436376939
15682 3147563.1411385336
15683 2845189.969550101
15684 1957375.4941440623
15685 1964847.327849061
15686 1798886.9985396115
15687 1146837.0065880213
15688 1139883.8009711108
15689 1124038.0623832603
15690 1079643.7487327955
15691 1021891.6005933797
15692 978799.0744407275
15693 958848.7211493892
15694 972404.3264702146
15695 1045979.7317180095
15696 2331751.900507884
15697 2752700.318216273
15698 3370104.5825058804
15699 4650465.550807557
15700 8413696.292743234
15701 9166519.144018948
15702 10853320.418963535
15703 10974095.00821611
15704 10775368.69029763
15705 10238845.458393764
15706 9457244.838565137
15707 9047044.18759425
15708 8124992.337242657
15709 7474723.939382759
15710 6174669.672732015
15711 6285160.879456973
15712 7384037.213410639
15713 7457884.177184689
15714 7233398.476165451
15715 7014136.915573307
15716 6858860.96540421
15717 7014316.388507157
15718 7452201.170572539
15719 7272797.175466339
15720 6989799.14386712
15721 6728808.376788821
15722 6526853.933524638
15723 6225399.630665017
15724 6179545.170330037
15725 6202145.774615686
15726 5920990.523673006
15727 5765212.303248408
15728 5711816.901634113
15729 5682652.469656231
15730 5261152.893544233
15731 4881591.031970793
15732 5147512.330795675
15733 5549472.995880435
15734 6071149.522684154
15735 6468005.656266806
15736 5575543.8597830115
15737 4453419.312580146
15738 4284872.017138493
15739 4172138.0654187878
15740 3840217.008986245
15741 3873213.729325578
15742 3980518.331646121
15743 4040090.259087991
15744 4068863.5265698335
15745 3142568.4985990813
15746 3075496.681686695
15747 2957384.776049719
15748 2805042.705140038
15749 2644958.7063155905
15750 2484826.4532090547
15751 2331534.815389614
15752 2237248.3339976845
15753 2217815.500353171
15754 2278631.572140171
15755 2444170.2806843175
15756 2664477.114423006
15757 2965844.9950355617
15758 3567730.6358939195
15759 4595996.052969347
15760 4708683.092034168
15761 4730704.679499826
15762 4678114.16840771
15763 4564699.366704719
15764 4464046.807890091
15765 4434855.404049879
15766 4458472.120268585
15767 4484236.471430209
15768 4545596.386140311
15769 4551199.485369863
15770 3534710.7918088865
15771 3536862.2914222195
15772 2911497.527149239
15773 2923254.4156079763
15774 2919948.573072786
15775 5063826.144443957
15776 5007281.528360671
15777 5449875.923040736
15778 5400945.565342429
15779 5344887.584675656
15780 5321384.194637532
15781 5317126.1681737015
15782 6122434.300535815
15783 6122184.955848951
15784 6144267.659888068
15785 6178956.0493691685
15786 5920634.98804098
15787 6003741.160183528
15788 6199065.205696912
15789 6536211.582627375
15790 7050185.372266153
15791 7628107.271494059
15792 8129461.804013151
15793 8868828.17659611
15794 8999121.379213525
15795 8936459.113557758
15796 8697238.9835304
15797 8855743.874591453
15798 8773557.284363171
15799 8295895.721439432
15800 7746121.257291763
15801 6735843.738640949
15802 6476314.0857910095
15803 6330732.433459405
15804 6522373.373311791
15805 6520533.559756557
15806 6091120.164072669
15807 6163352.828075519
15808 6255201.173548643
15809 6170096.769658852
15810 6132281.036164453
15811 5950085.321549328
15812 5934047.995777237
15813 5921090.435238344
15814 5908197.312735507
15815 6044895.441458359
15816 6123216.025058392
15817 5944077.271710726
15818 5728993.642431974
15819 5293712.490612664
15820 5035029.716041568
15821 4942694.119553804
15822 4960903.671681135
15823 5012650.014591937
15824 5073268.542350317
15825 5078547.187478913
15826 4313510.821251024
15827 3337926.6948292027
15828 3183346.5026804465
15829 3063294.0736909327
15830 3015843.0542091304
15831 3073605.2620310294
15832 3248939.4102801234
15833 3544485.387518613
15834 3917616.909900473
15835 4333896.258900947
15836 5931836.191486461
15837 6392574.865179589
15838 5662290.599469653
15839 7029858.449742687
15840 8045446.554718302
15841 8210448.311369113
15842 8929583.899866275
15843 10443685.50788263
15844 10692000.536810325
15845 10873893.796778485
15846 10899635.495598365
15847 10810451.791615104
15848 10015534.428481037
15849 9822379.34281545
15850 9626817.768082675
15851 9163103.281345408
15852 7785261.478954148
15853 7409479.951891401
15854 6869093.647710235
15855 6430793.12035614
15856 6075599.381792354
15857 5985667.927837231
15858 6081738.648164222
15859 6290200.585277443
15860 5448025.215489301
15861 5550271.920283225
15862 5578184.106499313
15863 5611945.82554757
15864 5594148.009650623
15865 5521213.603641794
15866 5418248.579461207
15867 5277639.626783688
15868 5032281.871618359
15869 4669909.857015745
15870 3502076.6795040406
15871 3149084.259716055
15872 2857942.7829904985
15873 2586730.826083833
15874 2394927.9111967115
15875 2796724.4290259755
15876 2376472.3463781313
15877 2601336.7044227417
15878 2651937.550319672
15879 2789412.6529442267
15880 3071063.035392752
15881 3402539.639500906
15882 4581185.521744196
15883 5325437.03739771
15884 5837416.3225273285
15885 6385579.3853156855
15886 7836915.394514464
15887 8197979.576724976
15888 9040879.853469536
15889 9368387.646080133
15890 9520616.047417415
15891 8855749.90349195
15892 8419100.825594785
15893 7935588.671671052
15894 7111882.641699844
15895 6792178.461861393
15896 6436084.884188856
15897 6251674.531159733
15898 6188504.22439215
15899 6143345.4299692735
15900 6265367.698116264
15901 5959767.482649414
15902 6133151.120892158
15903 6395936.184280049
15904 6776422.086926298
15905 7025414.859507069
15906 7218580.351258445
15907 6391327.671954341
15908 6072555.815631067
15909 5449767.779320668
15910 5010757.588636928
15911 4705529.531787122
15912 4163175.0052688643
15913 3594010.1793292835
15914 3066445.4216499324
15915 2682185.640697225
15916 2448257.893769703
15917 2308869.958716322
15918 2289934.744171469
15919 2365317.7267251653
15920 2426257.9595293575
15921 2680499.1698309006
15922 3203054.758938082
15923 3637982.8390376745
15924 4778690.930532672
15925 5143624.124077325
15926 5459076.302571631
15927 5634344.880286022
15928 5457773.754342389
15929 5499278.082679789
15930 5577740.953356482
15931 5805226.44759376
15932 6101996.50148565
15933 6450119.569501425
15934 6870499.890837636
15935 7509262.039892068
15936 8816942.047225809
15937 9054810.300545022
15938 9226169.583371969
15939 9074723.584243596
15940 9092143.790864464
15941 9066803.198960727
15942 8447729.324678635
15943 8216006.915076809
15944 7968612.200703775
15945 7562634.995695406
15946 7090222.991427915
15947 6606262.0617889445
15948 6184621.610789435
15949 5794667.586278391
15950 5600750.958006043
15951 3937801.8144633514
15952 2896861.6529626846
15953 2630426.9452243354
15954 2703203.046755296
15955 2794810.4335595225
15956 2039761.776657263
15957 1183096.1583285949
15958 1114043.2509854066
15959 1035754.1883545363
15960 961326.9732976541
15961 908323.5435369943
15962 857710.3439518147
15963 830780.4677238056
15964 817377.5806834714
15965 811385.85267876
15966 817313.9437947987
15967 826391.6099020832
15968 827394.7913308784
15969 833827.1223197863
15970 845215.4086649753
15971 850191.7646676205
15972 850379.074485674
15973 860408.6163780296
15974 869955.676574835
15975 880701.7151112548
15976 889995.8222472457
15977 1476958.1210866382
15978 1803874.4560413975
15979 1837675.4730997796
15980 1953428.7251862413
15981 2294473.337598979
15982 2548723.7160208644
15983 2817555.969333419
15984 3034847.796972973
15985 3206151.8171909926
15986 4456986.279158168
15987 4485247.139988001
15988 4434349.415716094
15989 4312143.447198704
15990 4207695.753675121
15991 3810896.9250070625
15992 3652419.3537185057
15993 3486771.903316694
15994 3313682.1808750913
15995 3124233.76417119
15996 3012767.223048954
15997 3323691.4532336984
15998 3286484.1622253833
15999 3716095.6454520663
16000 3815065.858938702
16001 4054374.008686184
16002 4776447.773739128
16003 5207986.774047058
16004 6485687.427914665
16005 6948648.81789733
16006 7376047.962065194
16007 7929839.53906538
16008 8374778.862563709
16009 9468061.524972511
16010 9910795.099518731
16011 10222870.794641772
16012 10475637.0295148
16013 10787621.95929094
16014 11276902.442471746
16015 11899233.956084164
16016 12414789.75376447
16017 12881108.740516221
16018 13900527.200513422
16019 14037398.318069201
16020 14066728.892395994
16021 14009078.982839745
16022 13573564.521492884
16023 13025122.717419079
16024 12447410.524598422
16025 11629957.238247506
16026 11511276.991988108
16027 11225811.51381205
16028 10974688.555003319
16029 9585268.727958016
16030 9370890.938876187
16031 8020273.744015534
16032 7524006.766036626
16033 4834523.82054794
16034 4149440.464241975
16035 3606831.125722035
16036 2324630.7426750995
16037 1706985.144223049
16038 1598332.1459129
16039 1615132.6039207715
16040 1716276.4093802304
16041 1125885.0942267412
16042 1208099.3060389908
16043 2038495.3097551859
16044 2046609.5074037483
16045 3039546.535759966
16046 2929879.6003725547
16047 2805339.016071434
16048 3174444.4106572797
16049 3056876.884652262
16050 2998635.3641247265
16051 3026967.2079907027
16052 3074850.197646106
16053 3138943.2350704614
16054 3181147.2610552725
16055 3129497.8152756905
16056 3678953.986401888
16057 3474748.2850649133
16058 3111178.6361394264
16059 2743528.0247147614
16060 2915107.3201283817
16061 2459098.2017223425
16062 2458625.4916373696
16063 2515675.914583308
16064 2493967.5481696045
16065 2657286.005650985
16066 3706648.2979070926
16067 3698581.404276237
16068 3805158.681077638
16069 4612244.922095723
16070 4643532.885360523
16071 3885307.5117665394
16072 3831440.0861717314
16073 3833146.8917428833
16074 4050833.7198136486
16075 3690150.6050423337
16076 3563971.105890365
16077 3329137.094265628
16078 3016825.9445055793
16079 2851852.5962670003
16080 2791889.6513861152
16081 2639258.7032145574
16082 2725518.7583886613
16083 2886139.3142625345
16084 3134840.6668586726
16085 3489936.1847816976
16086 4678967.291676634
16087 5410386.76282046
16088 6873233.556641044
16089 7754332.884535282
16090 8410029.308880087
16091 8768787.94119619
16092 9195204.430301627
16093 9368667.546201576
16094 9439582.021873757
16095 9078931.57079458
16096 8714360.741998592
16097 8345504.592812866
16098 7673938.412174819
16099 7303216.216674054
16100 6820952.722034467
16101 6449614.784536306
16102 5998732.843641928
16103 6023979.138328762
16104 6222466.275577828
16105 6380249.708121579
16106 6654859.932621282
16107 6725207.581631602
16108 7039850.347050441
16109 7235234.35319573
16110 7495906.657623467
16111 7730533.70340576
16112 8009659.781452553
16113 8025162.003988636
16114 8225457.477310971
16115 8094701.721153429
16116 7704724.399679375
16117 7479623.095323158
16118 6211490.450089634
16119 5935812.775336667
16120 5737422.971917629
16121 5617865.87962357
16122 5754078.219346434
16123 5844043.880213374
16124 5415774.625291276
16125 5529397.005423328
16126 5422725.36974649
16127 5098236.183597018
16128 4853179.232602018
16129 4630686.304282614
16130 4364076.411473826
16131 4215228.655828822
16132 4239626.107418282
16133 4440622.895478971
16134 4723071.751234621
16135 5061753.241260989
16136 4713413.85251623
16137 5861262.195230802
16138 5038140.873089488
16139 5167838.753963014
16140 5168186.645812958
16141 4675068.69144835
16142 4613510.731537523
16143 3715140.0555134267
16144 3648409.5642724754
16145 3769956.495979763
16146 3627700.7294793115
16147 3498126.626815004
16148 3406802.426748263
16149 2130772.5518591595
16150 2028205.8267596373
16151 1271076.79635748
16152 1223731.60974598
16153 1203320.3128198932
16154 1219247.7380823882
16155 1239343.1633230448
16156 1262848.559450788
16157 1304419.3738020544
16158 1391078.4153272768
16159 1487739.9084076043
16160 2646616.3289796817
16161 2751492.8039805098
16162 2853065.159554741
16163 3527772.911575195
16164 3457760.925261063
16165 3361001.480662369
16166 3263932.823435132
16167 3132716.1160635576
16168 3005036.8305596015
16169 2890588.806227504
16170 2788229.937533906
16171 2807353.793723281
16172 2920857.8804513225
16173 3106143.055307207
16174 3308344.8359449864
16175 3526416.5362649886
16176 3227964.4642083133
16177 4315656.01054274
16178 4467494.384939049
16179 4472251.765263908
16180 3641819.5754200304
16181 3490656.0812325883
16182 3357344.66182356
16183 4965434.417520162
16184 4906243.557920725
16185 4947235.7211250905
16186 4985269.389719094
16187 4989530.8443713635
16188 4998709.755475668
16189 5931699.398630857
16190 5801353.764841487
16191 5623350.019480745
16192 5444090.426030288
16193 5431159.262838344
16194 5234024.287762738
16195 5144054.379470866
16196 5220543.725395907
16197 5385990.43650491
16198 5594915.991759278
16199 5787421.736706518
16200 5737101.238562278
16201 5764570.471764796
16202 5724605.139888215
16203 5663558.343029254
16204 5631004.876787318
16205 4610348.658432227
16206 4445786.964946725
16207 4289081.744105778
16208 4115084.846723517
16209 3445622.396418292
16210 3253586.9159373287
16211 3115949.6123129334
16212 3029357.9509026073
16213 2723862.454850352
16214 2611043.192914283
16215 2504635.6492293286
16216 2369594.8203319283
16217 2237017.9837302426
16218 2073183.8462166735
16219 2044849.1768591015
16220 1927142.0839202693
16221 1828407.9522750543
16222 1269494.5103442771
16223 1261166.5610239133
16224 1282639.3485014865
16225 1660104.1054043013
16226 1629508.1508003303
16227 1781558.0303217992
16228 1993724.3638562495
16229 2251282.588417669
16230 2616725.0294197625
16231 2994111.434326139
16232 3305992.372607641
16233 3597402.436437956
16234 5165416.177852495
16235 5537250.666533585
16236 7115763.914288725
16237 7331627.3401391655
16238 6094064.557765427
16239 6034917.874967033
16240 5842410.918241246
16241 5528157.893661695
16242 5176589.068661835
16243 5853932.716297801
16244 5416083.089061954
16245 5090784.593846375
16246 4846369.073404333
16247 4698945.785934041
16248 4607689.6925427355
16249 4844129.496159411
16250 4696110.198971769
16251 4616175.747295986
16252 4244757.989743802
16253 4791437.37927649
16254 4805268.459130705
16255 5239433.472491811
16256 5458072.315206941
16257 5690694.100029377
16258 5809690.029584756
16259 6041888.796540005
16260 6223602.942639103
16261 6413813.903389378
16262 7574738.431032649
16263 7717565.376841961
16264 7866825.9565943945
16265 8066498.9747670805
16266 7513394.354045756
16267 7791777.061455132
16268 7978283.260330047
16269 8209481.374287834
16270 8471636.984777644
16271 8741276.27705559
16272 8913528.885333123
16273 8830338.157486351
16274 9539169.75471815
16275 9984201.652219389
16276 9723052.185252259
16277 9204696.714728137
16278 7763227.155328877
16279 6322574.620892027
16280 5675507.745147217
16281 3895399.7365618385
16282 3401986.80855091
16283 2950738.2775532715
16284 2166956.555594327
16285 1831274.8041238333
16286 1715985.820081919
16287 1502881.0276772522
16288 1519935.939671047
16289 1773372.134823176
16290 2438728.0672869775
16291 2702118.116656183
16292 3233324.6166560873
16293 3539439.818741098
16294 3943685.550014776
16295 4792448.584748135
16296 5256158.761763091
16297 6593083.062792551
16298 7293175.7851270195
16299 7917301.7835761225
16300 8456475.475290043
16301 8788155.792369273
16302 9092168.952166436
16303 9279954.406563923
16304 8918268.589115812
16305 8040781.29661341
16306 8969425.2568597
16307 7609801.227726286
16308 5190351.830850985
16309 5001588.223063416
16310 4874986.590817422
16311 4698304.914809024
16312 4491952.430510026
16313 4275321.695700611
16314 4108071.2496058373
16315 3958254.3328050533
16316 3867445.227128368
16317 3398104.6358278417
16318 3387534.42871083
16319 3434364.526336356
16320 3499574.7828534474
16321 3577311.6821476864
16322 3641249.7310046963
16323 2840022.7782765413
16324 2794478.534495364
16325 2713693.648322867
16326 2597396.2123774756
16327 1406841.1894287164
16328 1299806.2904258284
16329 1195330.0805010027
16330 1094976.953058134
16331 1009947.6308718926
16332 950559.5616830615
16333 906063.1691913242
16334 868775.4566562396
16335 844029.9914676874
16336 821176.2944460866
16337 807002.7313999857
16338 1393657.1827679113
16339 1786212.4089652577
16340 1415159.2925572444
16341 835521.5256181147
16342 876046.0690278003
16343 944509.9658473273
16344 1045045.5289899828
16345 2060913.2476417813
16346 2995500.754375175
16347 3714764.8636741517
16348 4939252.618686726
16349 4867908.28233122
16350 4940902.7470372245
16351 4973967.379101493
16352 5005681.785758518
16353 5098853.756770791
16354 5242261.682747859
16355 5449948.288227538
16356 5721663.091420152
16357 5615290.804951734
16358 4479987.245846716
16359 3065059.776959173
16360 3651688.61154523
16361 3388324.8043105933
16362 3124422.4472313006
16363 3484139.4851171514
16364 3296854.108616631
16365 3164301.908473824
16366 3082782.807564034
16367 3061921.652970249
16368 3394297.774584551
16369 3360238.2703857333
16370 3065679.1115472913
16371 3079873.683076746
16372 3148172.597130161
16373 3222706.598343487
16374 3296608.0028172894
16375 3369732.3022734975
16376 3496059.739790202
16377 3526974.1893679784
16378 3532940.217485519
16379 3506837.5008285944
16380 2854309.586115636
16381 2773766.824732786
16382 2700152.440432536
16383 2941924.5212265714
16384 2958929.503071329
16385 3020958.341369002
16386 3444742.4078637366
16387 3532212.9075691067
16388 3604803.109733846
16389 3670049.8435091693
16390 3768205.302369759
16391 3352359.696435898
16392 3429041.7213238566
16393 3045604.308411938
16394 3862347.94267178
16395 4932310.425057654
16396 5150879.827251737
16397 5544223.156989375
16398 5816787.185681036
16399 6018244.933774277
16400 6194837.124978073
16401 5730111.015871407
16402 5765686.396805187
16403 5791045.3262832705
16404 5783896.980558262
16405 5744567.507850463
16406 4867618.605203794
16407 4892161.822681491
16408 3457058.292322659
16409 3331233.5466496344
16410 3166554.3953212705
16411 3788684.4064347628
16412 3524510.6941560316
16413 3287557.823196559
16414 3075903.0814782158
16415 3351330.826163065
16416 3399915.8126075272
16417 3237697.3961897613
16418 3094365.921082971
16419 2968063.786557009
16420 2664035.7525795787
16421 2532331.1025438136
16422 2414208.601323681
16423 2304680.2865564893
16424 2221508.139376134
16425 2169252.556671985
16426 2143978.2290226906
16427 2272611.5104241795
16428 2288206.950097357
16429 2324351.4470383115
16430 2391474.026944118
16431 2573958.9989282424
16432 2913819.9708631523
16433 3111484.0167774227
16434 3351208.734345944
16435 3844476.1952865277
16436 4832222.7741323775
16437 5174905.417774631
16438 5449441.572882012
16439 5688597.999548218
16440 5919321.92460734
16441 5902720.702266154
16442 5773263.261861112
16443 5574925.025900759
16444 4441398.801766688
16445 4190139.993122922
16446 3741977.327989999
16447 3573402.959254651
16448 3791339.62477965
16449 3739078.12126696
16450 3757762.684935052
16451 3774965.108115964
16452 3965583.8022132535
16453 3972627.6873532156
16454 3659403.6494122352
16455 3707694.568006785
16456 4084266.5684533864
16457 4307052.206270044
16458 4557730.241218217
16459 4822336.290881138
16460 5294345.250056434
16461 5915498.543627062
16462 6036667.253698108
16463 6472679.1667067185
16464 6956376.521876349
16465 7354122.311557306
16466 7419341.585859559
16467 7599672.517216633
16468 7665929.001205758
16469 6652766.775219113
16470 6439363.623065898
16471 6293401.047392228
16472 6184379.530573919
16473 6071332.707871619
16474 4245785.518642
16475 4082992.1475705546
16476 3961434.4456695477
16477 3856107.121489972
16478 3778968.4675628254
16479 3746490.4559559957
16480 3744562.364072857
16481 5277157.597379884
16482 5213870.375208443
16483 5102168.160336123
16484 4871136.858430492
16485 4582687.59926374
16486 4219169.417013289
16487 3838157.9393553585
16488 3473338.75625185
16489 3188490.026637262
16490 3033938.014580041
16491 3009904.623836045
16492 3098136.980130176
16493 3293681.285596281
16494 3608857.4443531907
16495 4430623.175878439
16496 4780087.864212708
16497 5353650.407521902
16498 6297457.675512817
16499 6374145.207554331
16500 6976285.065288128
16501 6881219.6522884825
16502 6740661.63651531
16503 6088265.187490961
16504 6666068.145475744
16505 6497900.935582878
16506 6449349.582067005
16507 6282839.071349603
16508 7879845.601587491
16509 7937723.256580886
16510 8539686.162981983
16511 8661209.493147338
16512 8644797.811973607
16513 7938092.765004838
16514 7667161.072186245
16515 6256756.265152256
16516 5205484.51132627
16517 4912524.516523334
16518 4630222.064795065
16519 4347823.846495368
16520 4138570.1656677974
16521 3896756.3131788876
16522 3712647.256804816
16523 3564157.06177505
16524 3443084.6376433377
16525 3353531.772565243
16526 3305278.1582292155
16527 3363879.5754416524
16528 3473133.2908329275
16529 3589292.3544460223
16530 3694139.167411991
16531 4142038.036260288
16532 4199785.27813109
16533 3977633.736161217
16534 4104009.4252114985
16535 3951360.5669859448
16536 3880219.84371871
16537 3695904.900679734
16538 3548006.4673426296
16539 3219602.5047747786
16540 2936226.542704883
16541 2810738.3830809523
16542 2725856.2978593744
16543 2789292.1600740035
16544 2501397.0986198643
16545 2561772.962075236
16546 2474629.268189944
16547 2376137.3637281223
16548 2288565.754878827
16549 1712736.4500871862
16550 1590823.8264237547
16551 1498846.5958512495
16552 1429588.560275715
16553 1132958.428142237
16554 1144876.6933192085
16555 1181945.2796363472
16556 1240971.055476576
16557 1284080.785581173
16558 1385854.9202536996
16559 1530945.6746954406
16560 2387381.6070182663
16561 2639467.342139291
16562 2950074.3070243313
16563 3242171.626014662
16564 3548524.677179315
16565 3875539.230076647
16566 4230611.075446891
16567 4463938.841092996
16568 5698729.836367006
16569 6542471.796488356
16570 6494841.113608492
16571 6484875.815455025
16572 6321766.39812619
16573 6240213.8594515305
16574 6218254.6127833305
16575 6182695.514914096
16576 5259403.537811109
16577 5021289.087659148
16578 4873089.195755116
16579 4809331.126807905
16580 4634296.53204283
16581 4525106.821799932
16582 5324594.884997202
16583 5458539.239075811
16584 4690114.797794937
16585 4833573.620979104
16586 5277276.444530215
16587 5898128.240368649
16588 5633445.462956654
16589 5339217.575091581
16590 5051143.562161219
16591 4847533.669161261
16592 4769219.214440304
16593 5412230.759471223
16594 5142868.108254756
16595 4939980.4490842065
16596 4972726.128815098
16597 5079354.556947702
16598 5396247.2853200985
16599 4887742.870125877
16600 5047666.616825441
16601 5439042.601357088
16602 5614436.060085223
16603 5784090.282325219
16604 5900410.746601755
16605 5350270.983751111
16606 5276232.810603368
16607 4284328.169700354
16608 4110383.0300299795
16609 3930169.552424147
16610 2776819.900923558
16611 2682107.4421717566
16612 2692486.5433540503
16613 2782159.6931309765
16614 2938573.250758291
16615 3126487.5689130467
16616 3344307.7218062743
16617 3595352.63401615
16618 5218477.376717744
16619 5447816.835496402
16620 6386120.3855988765
16621 6348540.398110962
16622 6206404.877888537
16623 6015901.768635446
16624 5810045.772366306
16625 6535821.032735114
16626 6357802.971460412
16627 6259572.415212244
16628 6228860.507199839
16629 6233513.11526493
16630 6243765.395865264
16631 6203271.064123042
16632 6144523.16851159
16633 6053842.407855442
16634 5959257.216472713
16635 5919945.962861552
16636 5894208.129225517
16637 5925204.794548836
16638 6392035.342102538
16639 6390874.121327287
16640 6326832.77501901
16641 5665432.626268093
16642 5566479.435514852
16643 5585889.872188207
16644 5492152.55712264
16645 5331285.76434118
16646 5119564.771561515
16647 4949500.172210234
16648 4821451.913967475
16649 4751925.322106466
16650 4786197.560726804
16651 4952994.431363737
16652 5167157.492273521
16653 5495871.806687298
16654 5734534.959008123
16655 5997396.523363021
16656 6230101.762092974
16657 6424134.393456525
16658 6903889.5565875545
16659 6935389.013882131
16660 6912713.802996549
16661 6814812.874086788
16662 6535882.3580632685
16663 6420347.32919422
16664 6387571.415936414
16665 6485757.842965485
16666 6496314.745078568
16667 6736196.5822387505
16668 7029923.0746675525
16669 7740475.744123726
16670 7907526.711084866
16671 8831346.919053473
16672 8741836.573094914
16673 8686190.41209534
16674 8360935.08719992
16675 7942305.2635374125
16676 7455937.3137022825
16677 7024071.042120648
16678 6621010.288802679
16679 5708652.666933586
16680 5199612.88492116
16681 5029094.303436789
16682 4864833.56818999
16683 4739018.525024294
16684 4624038.759592724
16685 4622863.012545183
16686 4360795.0398204075
16687 4170618.5355171557
16688 4487926.585634542
16689 4668925.0062056305
16690 4645734.270889211
16691 4544847.91588701
16692 3528670.0708878404
16693 3265172.392847684
16694 2982870.880505447
16695 2724891.716025956
16696 2520397.4315299173
16697 2408770.5946195885
16698 2366884.341790195
16699 2090503.321236421
16700 2162412.9916583975
16701 2271225.8021973125
16702 2427062.4279598556
16703 2597003.9984101416
16704 2760594.3713006936
16705 2885293.4582063183
16706 3397485.8814695943
16707 3446147.458692273
16708 4249542.616621818
16709 4382201.710939588
16710 3578825.623596284
16711 2825043.3899568734
16712 2739774.737675344
16713 2757234.908566849
16714 2987132.2685866593
16715 4149333.044453838
16716 5303337.303442812
16717 6005973.580881074
16718 7478562.216465785
16719 8233410.089753733
16720 9245859.853124797
16721 10187503.884838888
16722 11177149.344879251
16723 12652865.794276822
16724 13231635.348809931
16725 12924328.346483706
16726 12515138.018900165
16727 11729405.903212266
16728 10048493.17340291
16729 9461586.125631254
16730 7736988.92512054
16731 7414480.57408103
16732 6956201.008718759
16733 9062830.642930457
16734 9413995.828850452
16735 9835402.399655446
16736 10254209.960704008
16737 10501927.934361232
16738 10616259.192708602
16739 10549750.78575562
16740 10129240.301927596
16741 9609977.594401846
16742 9148626.80950531
16743 8748603.630774481
16744 8490573.906513331
16745 7591681.089169614
16746 7483382.863806008
16747 7428396.780818475
16748 7420241.082308311
16749 7390690.748153226
16750 7655767.120051994
16751 7376339.09174735
16752 7110936.235190637
16753 6618887.564447075
16754 6439359.0436524395
16755 6297590.6885200655
16756 6158441.404625178
16757 6056733.198495115
16758 6024565.367164588
16759 6278697.55492675
16760 5970123.564596897
16761 5997185.007226044
16762 6009505.033955393
16763 6025951.748817926
16764 6028100.520485507
16765 5702877.928227711
16766 5705132.553295456
16767 5735922.213959271
16768 5795383.859087716
16769 5941059.450691221
16770 6135495.598031194
16771 6293201.500193064
16772 6339127.157974284
16773 6616953.031727995
16774 6302462.629541979
16775 6288401.604278381
16776 5843692.116481838
16777 6419083.142270176
16778 6471659.183979817
16779 6534765.921551366
16780 6713067.8699496845
16781 6686866.888689505
16782 6553139.723338992
16783 6401061.632181738
16784 6008523.017967828
16785 5403961.339753436
16786 4550931.260468692
16787 4226092.94045908
16788 4001726.4185329867
16789 3909780.863818705
16790 4012541.466365814
16791 4091814.2748757345
16792 3751655.770040176
16793 3786582.75140268
16794 2547327.152489356
16795 2513386.446879867
16796 2446205.257052353
16797 2359173.086310926
16798 1457473.4832520774
16799 1361049.0595966738
16800 1287122.9366884239
16801 1228021.5019845685
16802 1175067.6196078972
16803 1163212.3838615846
16804 1170454.524361689
16805 1189992.0379394384
16806 1217483.7540932358
16807 1349273.032724919
16808 1902081.852026604
16809 1986446.4757697487
16810 2098681.8922418337
16811 2807646.976206357
16812 2971996.8965537455
16813 3145783.353742487
16814 3391850.3792991317
16815 4168145.7992744325
16816 4564942.666995201
16817 6501081.7411662955
16818 7100991.361024945
16819 7807074.238527026
16820 8372372.881686393
16821 8837863.718325356
16822 10472119.933502918
16823 10608098.549394825
16824 9851226.7150173
16825 9566285.134119075
16826 8448768.051335596
16827 7957005.7370032165
16828 7353191.322461392
16829 6893717.159423192
16830 6575374.8720792215
16831 6498345.645298088
16832 6660807.134191904
16833 6949280.439666124
16834 7247483.204520128
16835 7572512.174220723
16836 8406143.895427264
16837 9260281.256885389
16838 9466329.007391118
16839 9877327.679840932
16840 10295393.21895618
16841 10675910.960418642
16842 11013989.563383756
16843 11194002.849306235
16844 11222794.488883385
16845 11113842.965365503
16846 10876056.659580449
16847 9207736.837308016
16848 7863406.041135858
16849 7297631.273686005
16850 6827687.6853891555
16851 6430537.146207455
16852 6076037.518347854
16853 5920555.8776146015
16854 6013588.101676693
16855 6343709.212277116
16856 6785586.1974362405
16857 8259881.44425163
16858 8672869.15970662
16859 8759823.774153227
16860 8938176.41225644
16861 8888898.338277996
16862 8666748.92177509
16863 8392774.018696062
16864 8173045.006213874
16865 8168504.146780823
16866 8225987.379645193
16867 8233219.333472253
16868 8298221.297655007
16869 9212963.914094137
16870 9094189.008248057
16871 7992772.053097051
16872 7681176.8976452695
16873 7357676.352397088
16874 7042565.898318946
16875 6729574.516278739
16876 6445907.44776004
16877 5453357.122265591
16878 5172055.767850857
16879 4399258.651772594
16880 3561937.509787598
16881 3239100.106415951
16882 2923998.622543216
16883 1304520.4900416338
16884 1152310.7285917092
16885 1369855.3083357883
16886 795389.6680156366
16887 813969.6446918115
16888 885520.7526529201
16889 1633880.3935332084
16890 2620184.7718871683
16891 3357252.792507729
16892 3839324.272514127
16893 5969119.578104128
16894 6720021.235650624
16895 7517920.268910134
16896 8199931.2231294755
16897 8742147.56087889
16898 9217272.278159166
16899 10402801.978674818
16900 10143200.886807807
16901 10028890.04712349
16902 9780803.482035823
16903 9480299.431782527
16904 9199514.352335963
16905 8256529.57318855
16906 7979850.535006481
16907 7531203.036839411
16908 7231819.280757152
16909 7021251.178398604
16910 6876278.386599575
16911 6838798.079062036
16912 6778351.656832553
16913 7080273.292838694
16914 7346533.576131512
16915 7651224.387963327
16916 8064258.807487088
16917 8985371.212933812
16918 9123383.51721526
16919 9098010.836298887
16920 8900615.335278224
16921 8532435.604155812
16922 8051731.635835219
16923 7533140.030619513
16924 7087892.521112512
16925 6671314.914584995
16926 6381201.248811058
16927 5507363.7171547115
16928 5598316.315527532
16929 6098151.425874443
16930 6011686.129047438
16931 5759646.69237523
16932 5805677.6351485085
16933 5826174.866957953
16934 5734480.269806614
16935 5808156.635671922
16936 5960240.809619538
16937 6303111.788134658
16938 6646339.190366204
16939 7107780.819266201
16940 7655937.6689608805
16941 7062970.693536647
16942 7128993.935185052
16943 7263274.11151819
16944 7682048.774038042
16945 7976558.798985616
16946 7103557.774042886
16947 7417134.953610472
16948 7798170.547869846
16949 7504618.916900842
16950 6761336.832338853
16951 7034263.91633203
16952 7282640.908812376
16953 7405626.293891137
16954 5818385.412847464
16955 5111023.525009525
16956 4927434.783008959
16957 4160067.8762943414
16958 3847352.393932568
16959 1714934.110334896
16960 1230622.9395275975
16961 1116107.8889752887
16962 1038368.0951875328
16963 1006125.3067040043
16964 1007905.841806408
16965 1035697.3942211312
16966 1069733.3577294843
16967 1662893.7887114084
16968 3093777.9276579353
16969 3018061.7730961987
16970 2858286.8527477067
16971 2748927.9772773804
16972 2527927.3301679958
16973 2346778.4177536475
16974 2168011.9527331195
16975 2050574.2024495841
16976 1963614.668495977
16977 1896040.7161412467
16978 2302524.34832004
16979 1533629.9169867265
16980 933315.1683107261
16981 993768.8516628046
16982 1070864.815437281
16983 1132257.0459115063
16984 1180681.7062362193
16985 1194103.3725587681
16986 2291987.867800097
16987 2170149.6652093288
16988 2066984.481366992
16989 2064908.6368079288
16990 2142563.693466089
16991 3175077.6393595273
16992 4065969.402602436
16993 4274735.858820096
16994 4571061.766965786
16995 4907258.11895128
16996 6000605.541168376
16997 6536040.122766304
16998 6969403.977645599
16999 7376021.144734019
17000 7689252.781917481
17001 9087547.026102047
17002 8764248.207281733
17003 8442305.599404221
17004 8073473.95738994
17005 7610876.731103496
17006 7026766.855538957
17007 6537739.7624954805
17008 6105193.828452698
17009 5739310.379442189
17010 5510722.549189781
17011 5342706.200810473
17012 5162565.107595978
17013 4888665.12193745
17014 4190489.477461755
17015 4152777.658406524
17016 4267807.022659068
17017 4139092.079788386
17018 4259957.695979724
17019 4423529.435480482
17020 4776280.3600135
17021 5554699.657964099
17022 5919535.871739379
17023 6213452.374102492
17024 6428669.823810567
17025 6574400.451390908
17026 6646918.704133273
17027 6648140.924270338
17028 6610698.01696921
17029 6559878.254861361
17030 5452241.10442562
17031 5264688.6582568735
17032 5065794.890049241
17033 4920122.825281425
17034 4762656.001255669
17035 4668196.260190574
17036 4581210.296602702
17037 3570230.6559853316
17038 3444196.285199017
17039 3363169.315558415
17040 2715846.2065138803
17041 2039617.2049912645
17042 2022319.517541901
17043 2020843.196244672
17044 2036506.8349125648
17045 2054414.2610682147
17046 2108298.7285093353
17047 2123951.4501439743
17048 2405642.8238635315
17049 2397908.2181840595
17050 2389234.4835772663
17051 2174521.6040304326
17052 2019798.6687198535
17053 1989137.2019054347
17054 1921890.884720269
17055 1888830.3089991428
17056 1854696.9606494154
17057 1815794.2748574428
17058 1747825.1018578948
17059 1667988.321155409
17060 1546353.3969447343
17061 1418557.7215318792
17062 1279319.3076658247
17063 1661156.4285885133
17064 1055624.8160368442
17065 1016653.3215136159
17066 1015988.8379225591
17067 1037220.395912299
17068 1818567.784430783
17069 1978652.9884423572
17070 2583087.6169463177
17071 2861430.2944147084
17072 3216340.282532351
17073 2859217.569345594
17074 3520826.7182616857
17075 4215046.251463396
17076 4113192.3601090116
17077 3713797.9417647677
17078 3728204.216809183
17079 3754697.7368793325
17080 3755803.3667785777
17081 3748671.4329791754
17082 3133372.606166468
17083 3090984.804528014
17084 3046558.9598776605
17085 3683999.707852177
17086 3640968.716043846
17087 3650949.1702747457
17088 3874074.499376122
17089 3834299.603920785
17090 3012738.5425920803
17091 2873608.034307221
17092 2053246.9091541932
17093 1333657.6541817538
17094 1093825.9722149381
17095 1094166.8704379983
17096 1113486.0174721559
17097 1147368.9057454464
17098 1188407.767206813
17099 1230755.2475021624
17100 1283635.617543154
17101 1338476.3668594053
17102 1404268.4120559972
17103 1483164.2196023848
17104 1008026.1636199577
17105 1067396.1828441944
17106 1767915.69940029
17107 1863847.4913593826
17108 1953023.9483787839
17109 2015196.7216648164
17110 2049326.0500868924
17111 2047071.1801223152
17112 2027314.1864592307
17113 1998918.1867645185
17114 1993562.6029781208
17115 1998663.69695887
17116 2019768.7203384943
17117 3445281.9047877523
17118 3383454.859199504
17119 3303073.9899425246
17120 3139667.94891703
17121 2007669.0469419954
17122 1885902.188736359
17123 1786829.5643979858
17124 1704613.8171188221
17125 1711273.9759293534
17126 1634309.7244988994
17127 1584382.6569519804
17128 1556258.20911495
17129 1564227.5668148468
17130 1593606.836520249
17131 1653805.7545564328
17132 1736375.4429079273
17133 3038242.1037388486
17134 3117706.7597905253
17135 3151996.1725217383
17136 3143477.344767003
17137 3548990.2437521787
17138 3461508.423118833
17139 3367851.2880156497
17140 3265619.300292446
17141 3149619.1814182866
17142 3043677.4885406247
17143 2198786.2712242305
17144 2102088.944603694
17145 2015705.284408027
17146 1920711.7960452694
17147 1838127.278940933
17148 1752637.634582615
17149 1687572.1024391297
17150 1629858.8996923093
17151 2111044.5758910715
17152 2408686.9888507184
17153 1990252.8623340945
17154 2057155.8464338442
17155 2135340.3848548695
17156 2191459.9062303035
17157 2180426.7282820405
17158 2207743.4861626956
17159 2203424.4902256946
17160 2221269.2796872887
17161 2252078.507088786
17162 2378386.516370042
17163 3152027.073712317
17164 3492451.069955926
17165 4471923.631117529
17166 4864640.942474296
17167 5112080.010108277
17168 6239294.277809619
17169 5867131.145170941
17170 5947221.510403221
17171 6054681.692410647
17172 6453910.845333807
17173 5644497.5520019075
17174 5835176.678686728
17175 6138883.74760713
17176 6377739.344332453
17177 5299070.382428151
17178 5384415.683911673
17179 6412994.801241924
17180 6314875.7355557345
17181 3881383.1796096703
17182 3762047.925580501
17183 3669480.616727288
17184 3626412.606836949
17185 3601633.7119621728
17186 3604366.194878923
17187 2810818.78776919
17188 1345435.2220180954
17189 1318599.8246557105
17190 1420726.398650503
17191 2681867.648137953
17192 2591536.800318257
17193 2498518.975926913
17194 2394681.4322399707
17195 2319748.955235416
17196 2668574.155284005
17197 3391731.820952107
17198 3515590.8196887006
17199 3771836.3537035715
17200 5025170.47576503
17201 6608102.657333725
17202 7109906.214917294
17203 7601658.330257609
17204 8056000.487811176
17205 8445227.342780335
17206 8789424.540348314
17207 9063069.206534578
17208 9277067.6072126
17209 9424610.91705828
17210 9491314.978575045
17211 9534992.896541618
17212 9290469.6556674
17213 7694078.2589436
17214 7304703.0537351845
17215 6872187.772091575
17216 6433871.416093949
17217 6000586.7667336445
17218 3374255.4463774497
17219 3046290.54534214
17220 2853702.856684821
17221 2482034.1954943943
17222 2412959.9926880463
17223 2387279.179467563
17224 2403522.6982615623
17225 2470456.594445212
17226 2543645.3748010746
17227 2605011.4635327687
17228 1873920.5485733864
17229 1866965.3896445723
17230 1827540.3396280326
17231 1769155.0563745373
17232 1714478.7686974432
17233 1653740.843809906
17234 1604527.3297585526
17235 1564983.2057225362
17236 1533686.563396151
17237 1670689.1821611573
17238 1636571.237199015
17239 1427822.2007795225
17240 1367420.749150571
17241 1875054.2256160134
17242 1886504.0331353308
17243 1958366.0051797486
17244 2099396.5319288587
17245 2285780.2399036316
17246 2514692.991316228
17247 2786526.690011685
17248 3012848.241507622
17249 2243601.261208322
17250 3795564.9949848778
17251 3697009.78561214
17252 3614727.7325569997
17253 3551519.108481882
17254 3535275.7693212237
17255 3620347.2935789395
17256 3774008.9815426483
17257 4799757.912531064
17258 5488587.701077759
17259 5428313.975896778
17260 5337437.60103624
17261 5235705.736622953
17262 6061638.739672147
17263 5506927.875005822
17264 5279960.47582654
17265 5064890.612793323
17266 4992739.996917017
17267 4786626.319547339
17268 4641008.67152052
17269 4536637.576814566
17270 4460324.002426561
17271 3975896.6601316114
17272 3855022.1416144907
17273 3754705.1645527976
17274 3633335.148008125
17275 3538244.0437211394
17276 3480970.91232419
17277 3593296.699463591
17278 3675534.836144485
17279 3683880.851371899
17280 3730770.290781186
17281 3784530.6429104293
17282 3864347.5390696824
17283 3940884.425373658
17284 4016018.289695979
17285 3995331.8182630315
17286 3929185.094800833
17287 3846040.4680032213
17288 3745181.1351696877
17289 3661454.371670331
17290 3500208.7953672595
17291 2738708.482061451
17292 2611681.3753422643
17293 2415714.3132793284
17294 2288613.2682808028
17295 2175033.459912892
17296 2077783.1581080512
17297 1421414.3779640521
17298 1375335.6601226993
17299 1289032.8183701434
17300 1244869.4563437945
17301 1241516.0324126252
17302 1240965.5429637413
17303 1279113.249367062
17304 1317378.379385852
17305 1393126.3282522338
17306 1503486.1569022716
17307 1655679.2675677126
17308 1849505.600331491
17309 2096385.8154879434
17310 2331457.4253066517
17311 2551215.3204401936
17312 2754332.108622982
17313 2891212.702472382
17314 2999117.914204348
17315 3060529.16961073
17316 3089148.629209423
17317 3092151.907554747
17318 3091556.9200360174
17319 3086433.721162322
17320 3085395.6299707224
17321 3134736.899932
17322 4297365.245189423
17323 4411571.514628356
17324 4518108.755676139
17325 4636052.316706392
17326 4716737.604262396
17327 4717584.215262596
17328 4675006.48197534
17329 4574309.026974432
17330 4732010.936072784
17331 3996148.6958165686
17332 3108007.6558722686
17333 2973452.927090996
17334 2872790.1875282507
17335 2832639.8129295744
17336 2851229.340001743
17337 1938478.0828695921
17338 1933432.2542013603
17339 1956122.50493293
17340 1478710.706183212
17341 1461867.1394991532
17342 1461120.3694089937
17343 1457993.6245657888
17344 1460862.7199435714
17345 2474957.8355728993
17346 2486191.952953236
17347 2515806.394524878
17348 2583580.419777345
17349 2704631.016717441
17350 2857787.0842319024
17351 3032865.494544859
17352 3238403.2256417787
17353 3464636.242582322
17354 4625282.9006397985
17355 4913449.485575734
17356 5699125.031350741
17357 6008597.5853388505
17358 6253831.532053616
17359 6668993.226499625
17360 6850325.127362069
17361 6960851.887825977
17362 6917729.750852886
17363 6834796.198196481
17364 8314179.176458975
17365 8023002.010764851
17366 7703406.568535263
17367 7383373.763437659
17368 7126769.1322342
17369 6935871.958363286
17370 6856855.392938581
17371 6896503.457939472
17372 6994217.724802613
17373 7168602.69928652
17374 7208368.436003355
17375 5754458.48390428
17376 4287584.1176812
17377 4218745.478139818
17378 4096240.5688857995
17379 3880318.4913826794
17380 4730443.36745708
17381 4340439.240075829
17382 3985408.827660877
17383 3698210.9216157747
17384 3436582.8920820775
17385 4014614.076518843
17386 3765691.4391047247
17387 3605518.604774591
17388 2664178.113007924
17389 2532055.3935869
17390 2415767.478384876
17391 2330300.171795483
17392 2278275.7241362194
17393 2265484.644606546
17394 2287999.8178332127
17395 2334564.574864951
17396 2419595.4036540347
17397 2559111.330294195
17398 2771799.8152882676
17399 3108524.148516098
17400 3283905.954209502
17401 3363352.0365745877
17402 3446388.7167892964
17403 3458560.2553076497
17404 4375463.658106774
17405 4397357.800858334
17406 4484558.682850373
17407 4613714.048570798
17408 4756335.900719064
17409 4894621.831212311
17410 4994988.776399615
17411 5100468.358285104
17412 5163167.443134284
17413 5075501.404028809
17414 5035901.744865256
17415 4958008.418039504
17416 4837061.413881784
17417 4708928.12263935
17418 4702325.572998469
17419 4578109.971319472
17420 4497529.511782975
17421 4474868.2932047425
17422 4478980.831689299
17423 4514910.720977898
17424 4604838.005217228
17425 4437214.053509125
17426 3664890.9305910864
17427 3818821.8445223123
17428 4018609.960468275
17429 4276209.623068455
17430 4553152.174145798
17431 4877994.383880545
17432 5223957.222193301
17433 5563220.709750309
17434 6458127.664378879
17435 6099436.874749003
17436 6243143.646830537
17437 6277973.456912978
17438 6189732.773893168
17439 6032729.452218803
17440 5803041.346318542
17441 5618870.157107989
17442 5466446.27866258
17443 5406482.121638902
17444 5432388.128273371
17445 5470349.712897806
17446 5544613.979584962
17447 5593869.354186083
17448 5607501.149748959
17449 5576804.091094727
17450 5559541.152426024
17451 5493412.920346809
17452 5458846.179681587
17453 5421355.496069021
17454 5450470.161743601
17455 5522022.792499303
17456 5687383.387700526
17457 7263159.285077269
17458 7543536.581762484
17459 7866058.307827693
17460 8224349.727593447
17461 8643479.569628274
17462 8797045.950651959
17463 8863001.523089468
17464 9952160.007130226
17465 9658362.438052258
17466 9251295.071589116
17467 8773052.057857685
17468 8188172.436919162
17469 7613521.49538241
17470 7474005.810247143
17471 6924251.42918099
17472 5756851.572014318
17473 5429929.995822209
17474 5218937.865684508
17475 5143663.253959711
17476 5204947.907004467
17477 5347586.823049834
17478 5575284.825644173
17479 5801950.903358093
17480 6032306.719067064
17481 6120530.327510584
17482 6296731.344158005
17483 6588478.303466349
17484 6702564.812787386
17485 6779245.60796795
17486 6826353.449011828
17487 6586397.200792991
17488 6481076.12056246
17489 6327111.214464812
17490 6194024.328255841
17491 6053398.694254135
17492 5965238.556597291
17493 5893677.438383006
17494 5919084.428419028
17495 6026421.30483931
17496 6202488.748855976
17497 6453267.40285423
17498 6282610.82073129
17499 6480830.503038289
17500 6660982.1504137935
17501 6771477.72096276
17502 6910100.828654836
17503 7057500.698955012
17504 7764529.232086141
17505 7953706.2934723925
17506 8077713.545988135
17507 8698725.467002418
17508 8687353.236577742
17509 8371533.477059196
17510 7986761.260598389
17511 7643907.530579014
17512 7357042.787398677
17513 7164999.5565621955
17514 8168476.062880815
17515 7906414.3682185495
17516 7844995.882000387
17517 7372169.534936492
17518 7508216.097200228
17519 7853451.522731957
17520 8274699.694721579
17521 8716091.513802879
17522 9133762.59233918
17523 9701834.546268625
17524 10067284.341835354
17525 10422434.214664532
17526 9739722.788749138
17527 10034983.030523881
17528 10383100.753782038
17529 10764646.419771962
17530 10996471.829293549
17531 11432665.659506073
17532 11861175.546249421
17533 12274509.814778315
17534 12683717.41486655
17535 12293827.458449418
17536 12440622.706322664
17537 12473893.04747745
17538 12414596.386039056
17539 12194385.45993071
17540 13162304.794940427
17541 12639020.562056076
17542 12058934.039780056
17543 11496771.383034728
17544 10905995.905861763
17545 10396731.370012283
17546 9990355.507649872
17547 9777241.535819747
17548 9821480.102931192
17549 10473726.4580415
17550 10649579.0479611
17551 10876914.396129167
17552 11111637.956603019
17553 11197236.076463027
17554 11140926.117136646
17555 10912587.63913448
17556 10596095.198613025
17557 10145390.525816474
17558 9529987.569902577
17559 8880936.528900756
17560 8169425.490658246
17561 7422623.577066092
17562 6748011.986719449
17563 6168157.460285277
17564 5714614.793519274
17565 5456727.083010345
17566 5349689.02225719
17567 5370190.937195491
17568 5441070.52914201
17569 5397890.013256128
17570 5440587.735256163
17571 5280033.738008853
17572 5240778.748379939
17573 5203175.936324323
17574 5147136.413396918
17575 5113386.633866159
17576 5123252.812193517
17577 5190217.665305406
17578 5309597.973052429
17579 5443466.125968573
17580 5564601.412588925
17581 5679201.311267133
17582 5571443.129361288
17583 5044586.294773003
17584 4771043.096789073
17585 4511963.47653113
17586 3450998.3063397724
17587 3416677.958085662
17588 3521229.9529671096
17589 3793775.064395536
17590 5165643.884968403
17591 5719586.800612233
17592 6674443.120313974
17593 7302160.658878184
17594 7985874.669420782
17595 8418238.62640631
17596 8800771.37402577
17597 9115656.86789792
17598 10248052.883655667
17599 10325140.224503951
17600 10337728.34565774
17601 10257170.996556737
17602 10099252.776784176
17603 9920916.28212773
17604 8320248.7591986945
17605 8203660.349601287
17606 8262202.711769484
17607 8609791.350717321
17608 9149091.961818345
17609 9932326.242146792
17610 12491630.082930034
17611 13628454.770544179
17612 14725075.552210072
17613 15851855.711731562
17614 16844918.881204974
17615 17914550.11452321
17616 18644091.51873344
17617 19250120.46472363
17618 19835652.40688325
17619 20350077.879481766
17620 20789065.523416582
17621 20409825.704179555
17622 19280474.526418556
17623 18976519.776743688
17624 18544316.12720927
17625 18058964.556513373
17626 17534671.20456337
17627 17003018.60951584
17628 16228887.701922286
17629 15709112.749697521
17630 15354155.019158637
17631 15219644.566722339
17632 14955752.930478843
17633 15541617.964015827
17634 15362417.14132247
17635 15511940.167045798
17636 15102179.717290899
17637 14556694.612978859
17638 13840038.77189865
17639 13002550.50909779
17640 12054677.439327188
17641 11064231.177677872
17642 10076953.73242824
17643 9072412.682251714
17644 8454954.909476371
17645 8101928.001561567
17646 8058607.806735062
17647 8272672.124250832
17648 8678871.410487983
17649 9164972.182052186
17650 9646280.087834341
17651 10037250.683320591
17652 10580509.408116654
17653 11026202.108347652
17654 11494175.472907938
17655 12038155.80765438
17656 12048462.18121751
17657 11970887.666378085
17658 11851279.377047159
17659 12261342.3235392
17660 11790792.028863303
17661 11287709.663534112
17662 10838840.404587742
17663 10294641.095280794
17664 9828037.535507198
17665 9508241.149971884
17666 9258028.517095137
17667 8957339.837797204
17668 8425562.325002352
17669 8095970.070519658
17670 6696460.251112936
17671 6429527.063654502
17672 6456867.079725934
17673 6307162.855978611
17674 6876445.590983697
17675 5829550.946553244
17676 5640168.6813335
17677 6064864.097081732
17678 6237250.763767774
17679 6549192.524970653
17680 7000411.000726965
17681 7512995.002593859
17682 7931738.810874222
17683 9789162.70640052
17684 10032469.27134032
17685 10202000.490212405
17686 10342779.787963593
17687 10711144.796240477
17688 10878463.973816482
17689 10853326.824769598
17690 10788017.237053212
17691 10564636.667231753
17692 8931079.63573214
17693 8759606.85998303
17694 8567069.713197196
17695 8407600.84998479
17696 8313212.938462572
17697 8351416.613456639
17698 8500789.385924367
17699 8968980.844141461
17700 10779742.248409906
17701 9754660.144058472
17702 9946400.556402786
17703 11638768.346503656
17704 12055735.574836913
17705 12454719.21017745
17706 12945562.049573168
17707 13084809.33232571
17708 12844018.994814865
17709 13361713.660064481
17710 13630422.016462814
17711 13909097.646626817
17712 14108060.266756063
17713 14181488.172896734
17714 13960876.684627786
17715 14163869.157854717
17716 13408135.06070112
17717 11970760.204496345
17718 9733648.203588754
17719 9180343.765684443
17720 8875368.088446526
17721 9869424.179973377
17722 9831230.812383927
17723 9696869.550857216
17724 10049454.825637193
17725 10072415.380398508
17726 9548020.796427192
17727 9499963.403897319
17728 9368753.70185278
17729 9215275.979905898
17730 9178993.950408142
17731 9024730.212991951
17732 8896104.03188261
17733 8975958.626037745
17734 8755556.606652047
17735 8950017.775276704
17736 7864641.522601279
17737 7788808.966449564
17738 7546242.790297803
17739 7350652.021306431
17740 7233253.032311895
17741 7581142.383430675
17742 7390769.279211517
17743 7095674.8328691255
17744 6961658.310005127
17745 6892094.784591179
17746 6833680.524401413
17747 6710493.565476862
17748 6688654.003085419
17749 5933108.524531135
17750 6075157.19942904
17751 6276199.909226151
17752 6112330.953121829
17753 6346331.610607993
17754 7482020.3395216605
17755 7583861.238153499
17756 7570974.247854808
17757 7568471.866753292
17758 7706873.894073303
17759 7911289.60403059
17760 8291639.472502509
17761 8745718.435211867
17762 9788083.679076841
17763 9477467.556526914
17764 9974248.909262758
17765 10432680.56458419
17766 10820548.347465936
17767 10978184.316304207
17768 10740031.949614596
17769 10461946.599838581
17770 10112611.612872096
17771 9505209.465698946
17772 8961940.335312333
17773 8496597.338211078
17774 7238679.405547643
17775 6880803.9445116175
17776 6762191.631351391
17777 7022672.203899008
17778 8303959.472402674
17779 8786160.486876639
17780 9297692.918236379
17781 9695902.144598437
17782 10359854.89957093
17783 11153330.970896123
17784 11793737.762012322
17785 12388229.214687502
17786 12845037.610688565
17787 13130099.988512464
17788 13255589.382005444
17789 13251009.466863375
17790 13170645.679295607
17791 12739648.124696141
17792 12512745.430986896
17793 12568857.509172643
17794 12283325.006547688
17795 11948664.92943023
17796 11575879.417543357
17797 11373635.915078854
17798 11389891.17710982
17799 11565789.661886161
17800 11879571.869709482
17801 12143651.149851125
17802 12481135.288191589
17803 12461212.321139494
17804 12853004.48048941
17805 12652601.062865231
17806 13006016.502501376
17807 13419831.863605963
17808 13720149.550901607
17809 13448513.274482789
17810 12950549.15317536
17811 12460694.913245676
17812 11878379.32837884
17813 11424586.814275997
17814 10509509.31368759
17815 9835443.171146633
17816 9131793.663690869
17817 8379598.886276533
17818 7717655.171727296
17819 7040632.728065093
17820 6671984.432771747
17821 6351149.578197356
17822 6215412.984485009
17823 6026880.776383216
17824 5907361.883633449
17825 5814022.252712764
17826 5765104.412265732
17827 5814200.114634433
17828 5776109.980215985
17829 5823140.25527613
17830 5418744.756880671
17831 5539861.749434301
17832 5663591.940177041
17833 5795429.879818674
17834 5502358.510934928
17835 5570827.955342676
17836 5546499.55466224
17837 5492184.850178116
17838 5644823.33785466
17839 5310616.3622497935
17840 5697047.138921138
17841 5440528.740677746
17842 5168132.632644454
17843 4913352.199158649
17844 4725200.664695231
17845 4661852.980172767
17846 4298586.303238426
17847 4599577.078695641
17848 5191275.641315246
17849 5667887.521429822
17850 6058665.867292855
17851 6309025.954041942
17852 6386006.666327922
17853 6516960.329655914
17854 6424434.219888586
17855 6262922.242246216
17856 6095565.865637782
17857 5825432.191039915
17858 5594258.771373493
17859 5350521.08421813
17860 5256738.875225511
17861 4975525.809652656
17862 4851896.151009969
17863 4764619.555029043
17864 4744660.209041383
17865 4670979.058984288
17866 4482227.7389208255
17867 4386170.181064271
17868 4246966.944870179
17869 4058229.5888649975
17870 3828233.642291337
17871 4001923.987531601
17872 3824300.4379450423
17873 3435936.402055768
17874 3261748.681300683
17875 3260554.987764989
17876 3454916.0350193456
17877 3630195.073073925
17878 4003858.5503836363
17879 4121864.002652854
17880 4231552.683511683
17881 4389859.1668699905
17882 4611898.594476128
17883 4876932.629218081
17884 5203857.414939724
17885 5574327.1211968465
17886 6049923.047761765
17887 6383360.645804021
17888 6884080.596727709
17889 6850394.593962487
17890 7134698.415369941
17891 7534666.509628491
17892 7915039.986199832
17893 8125298.8715956155
17894 7432928.273322088
17895 7466605.664501209
17896 7303711.208314912
17897 8067110.192337594
17898 7964946.088472864
17899 8144524.06646857
17900 7530028.669640758
17901 7244446.319031013
17902 6939054.552363445
17903 6832313.815617378
17904 6473574.653026405
17905 6286518.593127499
17906 6279014.460838372
17907 6519086.623280844
17908 6902741.067048305
17909 7203591.979031283
17910 7391031.0871351985
17911 7578084.223493507
17912 7473835.0400211485
17913 7474158.534938724
17914 7354731.764303849
17915 7168853.443988089
17916 6850003.551773151
17917 6967061.371201578
17918 5624607.894819499
17919 5152657.076419957
17920 4721905.762625698
17921 4355360.351318723
17922 3975767.070133192
17923 3741074.098622375
17924 3573009.8497226224
17925 3441533.832016819
17926 3391226.8700286127
17927 3381874.50896883
17928 3316645.691800471
17929 3275973.2647895734
17930 3222463.002334988
17931 3188772.444788744
17932 3155942.3635855564
17933 2630658.8432694594
17934 2344623.0884127677
17935 2317581.440193748
17936 2543080.8829501364
17937 2586650.2806321755
17938 3148268.340830251
17939 3149216.1362813585
17940 3247739.2274351944
17941 3028368.445703399
17942 3553450.39060591
17943 3589638.4491758975
17944 3765829.2530416097
17945 4010820.4776813807
17946 4271616.603988244
17947 4523087.628703116
17948 4727609.430303768
17949 4735080.333950803
17950 4770326.827822618
17951 4744467.449178191
17952 4344493.434728984
17953 4174829.9105612617
17954 4025783.216039038
17955 3945391.8398246565
17956 3922838.664881818
17957 3959003.2101214183
17958 4074528.455779
17959 4106084.1127781924
17960 4460226.123921549
17961 3987120.7299463344
17962 3951701.4158435864
17963 4890789.516132553
17964 4917730.504868789
17965 4909347.629109114
17966 5311202.710336001
17967 5205395.511953298
17968 5068103.782553724
17969 4855856.427763664
17970 4663301.387411159
17971 4317625.769801608
17972 4166958.313335381
17973 3950433.5504829204
17974 2905510.3240776462
17975 2858164.2273167023
17976 3294155.163305441
17977 3167660.765405171
17978 3220747.098672601
17979 3308288.2080048877
17980 3248318.7057336317
17981 3027359.57988399
17982 3782853.4623917327
17983 2769999.475674738
17984 2716469.5078274757
17985 2738343.6225310387
17986 2508195.591320445
17987 2349565.008540742
17988 2508307.111197982
17989 2523534.567669003
17990 2645509.4041207964
17991 2842131.750537773
17992 3363649.965953626
17993 4239513.974580192
17994 4470186.66999036
17995 4653171.720986722
17996 4792363.019651633
17997 4566758.249985627
17998 4581372.803934698
17999 4230122.2258619815
18000 3385999.8774883444
18001 3200394.6956718983
18002 2201343.8925148505
18003 2037626.153987733
18004 1913663.2581093835
18005 1830449.5874229288
18006 1819668.2549404616
18007 1880706.3656965578
18008 2705051.9283484733
18009 2843239.512987286
18010 2994843.1993346713
18011 3715138.2441706574
18012 3772343.665235824
18013 3792472.5461207293
18014 3811559.950361502
18015 3760896.7884077267
18016 4117023.270940895
18017 4011260.1806598124
18018 3951669.3534510764
18019 3927278.079037933
18020 3989250.3696152163
18021 3225376.781769224
18022 3273628.0277316095
18023 3797003.0575458854
18024 3813841.023100469
18025 3654052.9439114486
18026 3487030.7775174542
18027 3079096.2155021783
18028 2547687.731455988
18029 2373822.1025600773
18030 2241254.1740341145
18031 1883394.5475417043
18032 2078171.6420036915
18033 1987084.3155684767
18034 1916803.1676800067
18035 1811682.9182568977
18036 1853678.8120856578
18037 1959708.6708391747
18038 1948110.9730609495
18039 1934035.5893315524
18040 1950035.6911729025
18041 2012157.4145326181
18042 2210018.243774429
18043 2377200.137495533
18044 2760696.101753635
18045 3400083.172592276
18046 3615585.589330468
18047 3765706.85395801
18048 3854931.3034117753
18049 3888037.3206897993
18050 3644036.4881389337
18051 3568280.722212781
18052 3454744.7646960937
18053 3247930.303926458
18054 2756310.503615938
18055 2536458.123494564
18056 2191195.546963172
18057 2122493.744052017
18058 2129795.2392848777
18059 2268576.1647403054
18060 2454020.962141282
18061 3003305.6782381264
18062 3540756.3490776853
18063 4313939.112217083
18064 4665504.911200234
18065 5063518.1940311985
18066 5211231.347683362
18067 5913963.864083559
18068 6084967.315538282
18069 6404508.88188981
18070 6730726.151655157
18071 6941017.852793287
18072 7412845.25485019
18073 7675139.663067235
18074 8340800.990027406
18075 8463158.440508546
18076 8463734.229671435
18077 8352160.106350504
18078 7907273.080302226
18079 7776395.317057281
18080 7681223.324819721
18081 7724015.061360184
18082 6808658.937860818
18083 7059016.807989551
18084 7206273.030547018
18085 6211950.141724391
18086 4065926.7441926734
18087 2488679.694398474
18088 2323840.48557132
18089 2143380.541425703
18090 2000438.8701581531
18091 1901010.1835858684
18092 1867287.9864781662
18093 1865388.1070123166
18094 1870642.8544731233
18095 1892300.9587752358
18096 1890034.85695112
18097 1866461.5127724975
18098 927165.8821330036
18099 917395.0111270729
18100 907115.7666326441
18101 904598.0543847287
18102 901161.0368435375
18103 2180721.0807110285
18104 2095441.0384749516
18105 2110647.5273772893
18106 2834614.5156357014
18107 3514744.8832798046
18108 4343146.4493252
18109 4414479.218367758
18110 4690224.976056809
18111 5371163.009201676
18112 5760104.112903763
18113 6109030.972924408
18114 6358379.470446079
18115 6537618.0907602105
18116 6921111.04706704
18117 6594226.956725469
18118 5359956.353510703
18119 4370987.897469226
18120 3171889.4446997507
18121 2867631.6534655327
18122 2694789.213291256
18123 1971192.968165021
18124 1914847.4142192437
18125 2491841.9606520915
18126 2437972.7716209493
18127 2920897.8385904133
18128 2802031.8977377852
18129 2591422.517471762
18130 2455270.4151630695
18131 1563064.936854002
18132 1487959.7142347854
18133 1024248.9171509016
18134 990373.6487382161
18135 981763.7948811576
18136 434949.09217914904
18137 939293.7862833055
18138 1246449.1617779417
18139 1283415.2384546131
18140 1454965.1299803131
18141 1896452.3848406868
18142 2528579.2887609242
18143 2762369.736918299
18144 3066332.292418536
18145 3241969.286722684
18146 3454228.309523296
18147 3678935.395816509
18148 4052842.2779695224
18149 4324988.416661151
18150 4601800.835131317
18151 5582271.873875145
18152 5929481.322035548
18153 6403362.658820416
18154 7090314.275321527
18155 7849154.007948511
18156 8512134.715354599
18157 8834328.128861202
18158 9071793.015649743
18159 8862230.895241998
18160 8492841.190980814
18161 5806110.71639885
18162 5333959.897488674
18163 4404531.733774039
18164 2763431.8462240985
18165 2513461.03284627
18166 1104227.0551191024
18167 1018069.2016682598
18168 958126.1870866348
18169 903829.4117984378
18170 852617.8499762346
18171 1264092.3404487383
18172 1231922.6128954703
18173 1233677.989546884
18174 1265996.4828867202
18175 1327840.7616152884
18176 1447246.923796073
18177 1562573.8522716851
18178 1686614.4647984325
18179 1836993.238203484
18180 1980902.7220608327
18181 2120786.2546794205
18182 2243768.7638951074
18183 4083287.644751081
18184 4167457.823757087
18185 6033202.364624948
18186 5844082.87915002
18187 5632955.797563272
18188 5350763.326278975
18189 4886335.827085444
18190 4526264.576960411
18191 1891899.31416038
18192 1738661.9322447022
18193 1585187.2215077525
18194 1437353.5185475782
18195 1301996.3562276892
18196 1166951.3435101204
18197 1044227.5591052976
18198 930058.932560435
18199 827957.4327834401
18200 758049.4286595177
18201 707398.0850543289
18202 628912.5576321849
18203 608352.7386526323
18204 636107.5975988983
18205 718410.10626944
18206 719654.7483255157
18207 743331.7712335887
18208 795576.8584586731
18209 1079225.7811138476
18210 1209377.910533815
18211 1355752.0381500265
18212 2123143.6148807923
18213 2853503.4864397105
18214 3104341.7162500443
18215 3345989.590527314
18216 3541697.9921564185
18217 3756836.451481556
18218 3843729.153056458
18219 3924089.4086261783
18220 3602327.0517198737
18221 3590578.465343223
18222 3538718.4480979955
18223 3449950.924788025
18224 3390745.288559193
18225 3990811.3892228277
18226 3957407.1149168955
18227 3977948.5179471797
18228 4017977.2826581676
18229 3332391.587152478
18230 3318749.186079267
18231 2486265.0505530564
18232 2371205.971163745
18233 2309571.935500138
18234 1703339.878525189
18235 1611406.7818204374
18236 1546560.0840535585
18237 1509156.0957125435
18238 1487437.5229336023
18239 1471246.7032953117
18240 904833.4079371474
18241 907179.4390283508
18242 904744.5114872856
18243 899382.7743433672
18244 889252.2699745384
18245 1414379.5808640022
18246 1377219.113370604
18247 1346997.9714455933
18248 1324371.4849327519
18249 1324012.8005386689
18250 1331878.7951185384
18251 1334565.3624090364
18252 1328709.666331717
18253 1326323.9512397286
18254 1600456.0186190417
18255 1594112.229030312
18256 1598973.7993140998
18257 2304219.638483485
18258 2392399.0399271823
18259 2566985.7259624926
18260 2832562.943927618
18261 3154455.946663212
18262 3518369.710415167
18263 3909750.3992234454
18264 3045202.787956988
18265 4312974.454698141
18266 4542596.044068788
18267 4738377.413652418
18268 4987494.476916644
18269 5885571.628043467
18270 6114566.52410464
18271 6320886.715668836
18272 6553096.231323125
18273 6803604.7993211225
18274 7055885.623443864
18275 8621155.588138178
18276 10180445.287969
18277 9972257.410391584
18278 9624409.169772621
18279 9203275.405852659
18280 8744315.36567745
18281 8273526.357623019
18282 7870272.1291374955
18283 7555365.103344686
18284 6322761.033030215
18285 6271436.200512811
18286 6331376.380858646
18287 6442803.507955339
18288 6578373.680650303
18289 6731471.045329561
18290 7804915.086902321
18291 7907483.370767117
18292 8018648.335740673
18293 7965478.766986606
18294 7947930.800724272
18295 7922160.798533537
18296 7062400.760329284
18297 5657159.115168715
18298 5637984.93784071
18299 5885726.025892542
18300 5305881.762834002
18301 5313183.373351594
18302 5054630.281787389
18303 5078797.679619961
18304 5079439.987917776
18305 5013300.685464685
18306 4901678.617862415
18307 3737274.9470962295
18308 3595558.810495554
18309 3459472.169250481
18310 3362478.8619452757
18311 3286701.708903762
18312 2887075.7112236526
18313 2809254.047819993
18314 3852290.6420791754
18315 3775333.6478343545
18316 3698883.8919718727
18317 3602040.3657770413
18318 3503415.557775418
18319 3403734.0660493015
18320 3272532.126942392
18321 3227134.5147300083
18322 3227590.4174110843
18323 3264934.628599304
18324 3354132.652987417
18325 3479343.2452043067
18326 3693213.216113163
18327 3956097.090869705
18328 4331612.655894762
18329 6337278.899853905
18330 7177930.051105661
18331 8059633.223323661
18332 8942583.653530477
18333 9756303.819141896
18334 10442658.275310015
18335 11864501.188483238
18336 12209794.546191799
18337 12814535.521497468
18338 13069602.27419497
18339 15647515.936962321
18340 13524793.746761331
18341 13422385.308115628
18342 13110763.232861815
18343 12777628.004656196
18344 12130825.47295867
18345 11148088.775728289
18346 10725240.925829027
18347 10070952.88441399
18348 8996354.26897882
18349 8444068.224881183
18350 8222013.834142661
18351 7965881.195615096
18352 7749620.698212421
18353 7314421.4520113915
18354 7094838.479882133
18355 6859248.448353913
18356 6705037.6924993945
18357 6549806.881957024
18358 5976296.041545708
18359 5842933.708601922
18360 5716921.334581957
18361 5568516.371603471
18362 5406196.17970248
18363 4610230.363872197
18364 3522368.419224819
18365 4060282.6078966055
18366 4113954.22336615
18367 2789828.8762214105
18368 2899562.6157906307
18369 3039664.108109631
18370 3204611.3786296477
18371 4551456.916244639
18372 4816706.829653794
18373 8180151.010222176
18374 8389610.967291698
18375 8488404.750014298
18376 8469424.073484303
18377 8363459.066443483
18378 9630028.368823444
18379 9416842.549477106
18380 9255639.252626915
18381 9097058.167673845
18382 8909676.849451821
18383 8632786.795178939
18384 8303914.5644718865
18385 7955763.899442228
18386 7607790.0921412045
18387 7280067.628489549
18388 7008748.581268527
18389 6820463.510756356
18390 6717761.065015999
18391 6659646.793746466
18392 6595682.781157364
18393 6058523.775977618
18394 6012516.304710672
18395 5964804.111098712
18396 6043315.439721164
18397 6208848.361178038
18398 6422749.880426787
18399 5668610.105008282
18400 5789374.059627852
18401 6197416.917633526
18402 6209559.339697061
18403 6272835.042069308
18404 6359534.982054559
18405 6513865.743626655
18406 6754464.915755156
18407 6259521.213748332
18408 6418672.453224855
18409 6541428.551614043
18410 6618930.033436963
18411 6658186.992760135
18412 6694661.8447049605
18413 4751057.783368066
18414 5980996.742449282
18415 5969761.969510122
18416 5966148.987312091
18417 4252941.011225973
18418 4267728.388755365
18419 6445110.494736176
18420 6558263.4249601625
18421 6779221.739188364
18422 7049619.9586760355
18423 7337082.732797485
18424 9140716.346013628
18425 9304917.317998778
18426 9365315.78237212
18427 9313569.899784498
18428 8980529.823696742
18429 8719611.442756694
18430 8995160.741421731
18431 8811766.442325406
18432 8479410.605754703
18433 8197687.313095462
18434 7952012.573700681
18435 7827655.171738813
18436 7813987.758343172
18437 7978334.077362193
18438 8222275.656208987
18439 9985920.014244702
18440 10398577.5737009
18441 10819143.867781116
18442 11015741.350264428
18443 11303076.905049078
18444 11539329.567838328
18445 11857730.325397229
18446 11933183.11779245
18447 11726484.168101678
18448 11626379.678364897
18449 11661488.249929368
18450 11891864.493442494
18451 10369189.162799617
18452 10543581.544321766
18453 10428528.36721852
18454 10644352.3786823
18455 10944814.164662216
18456 11305588.807220317
18457 11709861.691326177
18458 10546777.59305772
18459 10872431.841151701
18460 11111406.81192383
18461 11484852.41786482
18462 11338995.046348559
18463 12518687.483510775
18464 11869249.57958612
18465 11303748.772883859
18466 10777948.159928825
18467 10321260.559477877
18468 10048838.039199347
18469 9965787.011196667
18470 10058191.394605303
18471 10423413.464020642
18472 10917864.654428577
18473 11553339.078841431
18474 14199465.663675575
18475 14949227.663637934
18476 15726949.686233861
18477 16384112.520958852
18478 16925482.329842117
18479 19167945.078465473
18480 19289160.312166475
18481 19237024.423050754
18482 18804088.765537404
18483 18246867.664830152
18484 17465999.33790151
18485 16576623.362354757
18486 15468850.068347218
18487 14663563.225189228
18488 13925390.20301094
18489 13598816.991359266
18490 13641041.745238883
18491 13812335.949757366
18492 14312959.139673056
18493 15013704.500542672
18494 15830753.059119403
18495 16710509.105350135
18496 17582189.01597072
18497 18423862.652202703
18498 17068212.592103533
18499 17470911.071895577
18500 17895931.468134586
18501 15159136.94250015
18502 15559871.971607788
18503 18854182.663223255
18504 19346368.19426813
18505 22797032.319762897
18506 22977713.32421881
18507 22992636.97386665
18508 22771830.558782373
18509 21540100.597345043
18510 18015348.782208573
18511 18479097.29490313
18512 17892861.379640434
18513 17587216.584789872
18514 16984167.20689504
18515 16394871.895342067
18516 15974551.02696919
18517 17939645.804050468
18518 17486041.664918795
18519 17336762.677810945
18520 16874263.601517275
18521 16717307.109166265
18522 15609876.478133176
18523 15386381.079493875
18524 15287735.203401173
18525 15182971.284647848
18526 15056053.318146199
18527 13053634.18399091
18528 12342884.030711738
18529 11911386.521813322
18530 11494748.80604894
18531 11142350.14797423
18532 9946277.918273104
18533 9957877.952890445
18534 10240867.527863845
18535 12000582.515625764
18536 12603634.468352044
18537 13252744.390241088
18538 15922586.59573703
18539 16782971.40293532
18540 17566589.856418803
18541 20637268.517552104
18542 21596423.71985146
18543 22683776.274243698
18544 24362540.4108022
18545 25130221.179911356
18546 25755990.13305273
18547 26235106.314816434
18548 26313304.096766844
18549 23956934.997202165
18550 23909844.427330703
18551 23246312.3833868
18552 22546046.636781596
18553 21925063.15529925
18554 21421899.027509887
18555 21065023.84247459
18556 20826204.03243826
18557 20566323.851359967
18558 20402327.99055118
18559 20240284.533883788
18560 20096776.316291198
18561 21324819.596693203
18562 20941566.667687904
18563 20546033.43414232
18564 20124564.511367436
18565 19714767.782128867
18566 19315366.890472747
18567 18655795.358306967
18568 18352152.288706586
18569 18298507.04569453
18570 18183066.69888824
18571 18306389.401610527
18572 18375110.923719667
18573 18562063.283374432
18574 18783231.265875224
18575 18690529.81748744
18576 18563108.327003106
18577 18514168.34587048
18578 18294396.311106943
18579 18186600.619566284
18580 18081403.52530285
18581 18180323.779320594
18582 18285620.540610455
18583 17783400.127347976
18584 17900162.91243487
18585 18124772.274278257
18586 18343595.746347513
18587 17817540.325030576
18588 18099258.65905721
18589 19041727.18785075
18590 19120739.555723976
18591 19090099.215377305
18592 18053194.55935743
18593 17594933.065586686
18594 16952475.274325505
18595 16092547.80164553
18596 15517058.968493244
18597 12832663.211440803
18598 12421727.0339316
18599 12210974.625209043
18600 12261577.32807414
18601 14420691.567606788
18602 14293356.467977235
18603 14220390.462508736
18604 14015349.449118154
18605 13881141.871557647
18606 13849057.207473885
18607 13793578.55463609
18608 13597640.454943363
18609 13655765.82657909
18610 13745425.701839594
18611 13725391.709751587
18612 13907937.566128086
18613 13788313.317262547
18614 14364088.37719301
18615 14032698.16901027
18616 13703082.520919539
18617 12944300.057167217
18618 10499735.351628272
18619 8549986.216489533
18620 7629701.188906729
18621 6840115.672974312
18622 6337593.659711505
18623 6113051.307510899
18624 6186449.191942252
18625 6511906.573126193
18626 8209675.368899655
18627 8912844.346053446
18628 9706119.34837834
18629 10694159.237407641
18630 11523825.838529758
18631 12285789.19239874
18632 12943011.698273545
18633 14631219.847900566
18634 14903671.91980241
18635 15002459.978005685
18636 14922006.97606627
18637 14746290.170966834
18638 14583968.207532194
18639 14505714.532146258
18640 14537816.051537456
18641 14944180.66532403
18642 15084139.582596453
18643 15240127.146837356
18644 14158463.998148547
18645 14220879.63751989
18646 13371078.018096024
18647 12873659.588893242
18648 12598883.81813084
18649 12297998.573783617
18650 12024270.105191562
18651 11746668.013830936
18652 11468448.945551347
18653 11496254.243700083
18654 9353638.365494644
18655 9526890.433013206
18656 8933975.873462955
18657 8176391.135160215
18658 7657708.488285153
18659 7274737.921072859
18660 7081134.780238743
18661 7056129.746315245
18662 7209564.762939034
18663 7546167.865987246
18664 8148733.259424535
18665 8554338.25697887
18666 8769938.725624721
18667 9020853.104293091
18668 10679895.099299353
18669 10886260.004212046
18670 11965970.13880821
18671 12018836.242846306
18672 12016289.450615939
18673 11893316.715710288
18674 11448340.825496322
18675 11011387.860291386
18676 9351767.570645455
18677 7535844.20074101
18678 6832022.713146646
18679 6430982.730495296
18680 6144583.88770851
18681 5873976.282788046
18682 6306705.566611082
18683 6435205.930005264
18684 6572209.529986756
18685 6933516.553411947
18686 7288646.62697891
18687 7529131.742170192
18688 7879290.805796605
18689 9212652.490332728
18690 9624740.085476577
18691 10191111.535962623
18692 10690130.46637172
18693 11318820.4623234
18694 11619238.61938073
18695 11720905.72247769
18696 11835407.05607285
18697 11876175.02918902
18698 11894937.247739041
18699 11859735.380497806
18700 11810553.372329758
18701 11660755.471586633
18702 11500291.870695364
18703 11783163.340226743
18704 9937737.397854337
18705 9672876.72780139
18706 9582777.489622165
18707 9453274.976662576
18708 9597633.148634443
18709 10265539.540886126
18710 10467005.987009568
18711 10649726.552524852
18712 10255629.728091132
18713 10377946.719632989
18714 10374994.527261835
18715 10313495.316136766
18716 10022976.6603061
18717 9649134.270876847
18718 9690039.899357924
18719 9488483.172881078
18720 10024962.81038364
18721 9623626.039262371
18722 9247490.7769355
18723 8107822.446622004
18724 7864464.199464553
18725 7749711.518040878
18726 7624239.348214646
18727 7592122.2708777785
18728 7622625.369800644
18729 7687755.806556306
18730 7499584.538847402
18731 7427385.028977706
18732 7521309.357685847
18733 7743765.280049971
18734 7080285.661343663
18735 7660187.268935897
18736 8107569.059805484
18737 9511205.871075694
18738 10175462.553250423
18739 10480121.426584953
18740 10659078.537115186
18741 10736985.931499708
18742 10699263.00521841
18743 10488686.343068289
18744 10194251.311328098
18745 9814404.773150904
18746 9353396.353144592
18747 8926437.087432453
18748 8563925.92374839
18749 8274836.013476874
18750 7908573.441094786
18751 7762505.690172596
18752 7652998.693450317
18753 7599858.85888541
18754 7471161.065347412
18755 7403926.478447277
18756 7166965.436543187
18757 6941485.9568589805
18758 6743560.163295174
18759 6531204.485354713
18760 6370937.668568608
18761 6233724.049577688
18762 6167129.542730757
18763 6137651.611873387
18764 6116950.785899358
18765 6853577.9228053745
18766 7424951.232566901
18767 7641289.885581245
18768 8047954.654200941
18769 8582997.007194938
18770 9290328.945387762
18771 9966490.949417513
18772 10478639.062652227
18773 11113923.773507232
18774 11664731.894176047
18775 12106857.463785214
18776 12487004.796441227
18777 12471662.070872484
18778 12526362.336079566
18779 12557916.643876556
18780 12585892.948176323
18781 12502593.529062549
18782 12322191.444806611
18783 12019380.1746642
18784 11685684.081895119
18785 10683146.357943974
18786 10446036.132239463
18787 10494771.063989913
18788 10331975.14336298
18789 10189993.67514883
18790 10066075.97601491
18791 9901880.210842138
18792 9647914.416676523
18793 9521315.370695207
18794 9316127.980162248
18795 9149497.392374462
18796 8907626.763848292
18797 8539522.11698401
18798 8123679.240593501
18799 7673380.95137077
18800 6265205.315653758
18801 5957934.450466581
18802 5838777.244433729
18803 5817924.641159537
18804 6691652.590021695
18805 6848531.897150768
18806 7143155.464993097
18807 7452708.965314387
18808 7756434.092829572
18809 8408119.68461452
18810 8832506.005043365
18811 8129097.104596811
18812 8475079.125992794
18813 8694628.605715001
18814 8884426.381121255
18815 8909375.596833102
18816 9026834.16734345
18817 9231274.796991656
18818 9226356.100908028
18819 11309614.492689176
18820 11397895.289124342
18821 11267601.131793708
18822 11056262.592895214
18823 11058864.649952235
18824 10865839.036356518
18825 10792183.194443038
18826 10924122.84647244
18827 11155439.560262796
18828 11428288.048712919
18829 11783847.27860664
18830 11676806.07651514
18831 11248950.49954095
18832 11154895.468591673
18833 10699867.78660818
18834 10091728.230525127
18835 9216365.651203537
18836 8012515.911202177
18837 6665636.91591053
18838 6312765.344196055
18839 5564231.500780125
18840 5214500.050397217
18841 5046068.9076577565
18842 5070721.700098357
18843 5396663.849767306
18844 5431615.145404033
18845 5548562.990978588
18846 5462223.174160342
18847 5449393.952609981
18848 5156892.0776119465
18849 4897348.071245056
18850 4913436.294988705
18851 5771774.459535665
18852 6065907.883035517
18853 6369494.606502968
18854 6854361.219694116
18855 7230820.623428036
18856 7853360.952907753
18857 8038107.600208258
18858 8213575.482714751
18859 8291016.959126525
18860 8210053.264190384
18861 7719302.979694904
18862 7778306.5371605195
18863 7875860.559106042
18864 8509141.196894623
18865 9485781.29194533
18866 9618309.780074405
18867 9821604.329546576
18868 9860643.171648309
18869 9683609.328363197
18870 9050410.310294123
18871 8576581.827015301
18872 8090795.454617899
18873 7665007.900464627
18874 7376043.032922559
18875 7219318.974860782
18876 6234143.9334709365
18877 6112392.304181118
18878 5971445.471350738
18879 5834833.069243942
18880 5725907.06039961
18881 5631286.435324075
18882 4929414.143815698
18883 4622831.038374229
18884 4460787.903977044
18885 4390238.413765733
18886 4072517.0016355957
18887 4681049.904874132
18888 4686901.92350437
18889 4831591.130281476
18890 4940875.046175062
18891 5090429.91767976
18892 5280423.601196365
18893 5683901.477189944
18894 5915695.343191673
18895 6001055.811061065
18896 6195031.58233301
18897 6326231.555752071
18898 6413238.366220011
18899 6325815.773624233
18900 6234465.8738959255
18901 7155168.907624242
18902 7000271.851272089
18903 6858120.76720282
18904 6705801.9243853735
18905 6529979.384244194
18906 6342278.093568839
18907 6125296.573587779
18908 5867118.417828589
18909 5418801.37539976
18910 4822149.127369847
18911 4797277.185479556
18912 4776410.196111023
18913 4715697.798554316
18914 4445752.678947361
18915 4296158.128676046
18916 4346272.588760281
18917 4185049.617015211
18918 4011181.98151035
18919 3917555.7898594886
18920 3888770.541635458
18921 3910852.509238972
18922 3910437.470959472
18923 3940195.790035117
18924 3896285.0196154737
18925 3963893.6564207976
18926 4018960.447886439
18927 4408919.438560053
18928 4537929.737291135
18929 4664828.678057014
18930 4914866.527947763
18931 5073253.408662772
18932 5332876.434456979
18933 5513141.835743947
18934 5698902.5518232295
18935 5726451.408699705
18936 5766550.628665534
18937 5595269.159194906
18938 5399101.363104162
18939 4887356.374342372
18940 4730415.56122027
18941 4601274.787629885
18942 4550097.656387489
18943 4566793.588214482
18944 4773601.020512021
18945 4849369.989620325
18946 4950441.710294375
18947 5020579.032986283
18948 5080311.946766033
18949 4937264.2827733215
18950 4914635.242346936
18951 4857117.809896448
18952 4716512.275967081
18953 4687601.487211751
18954 4476390.874215443
18955 4352309.146885106
18956 4263704.984603281
18957 3492540.286855714
18958 3428578.750964315
18959 3356864.0596774924
18960 3965981.2214932386
18961 3949568.842409245
18962 3987420.473602663
18963 4094282.1503229463
18964 4248232.733367271
18965 4819104.445148365
18966 4975142.335831336
18967 5166758.095031885
18968 5718304.687073682
18969 5776132.283516986
18970 5785721.91766772
18971 5067040.861245747
18972 5040042.116733456
18973 4115935.7585137854
18974 3863927.23671718
18975 3703963.224033302
18976 3653340.4759848956
18977 3726016.4274904653
18978 3942686.2379512037
18979 4996585.220219574
18980 6052409.063914225
18981 6469305.518472903
18982 6738317.845904795
18983 6927067.2062619915
18984 7170492.460412237
18985 6862557.308364328
18986 6826826.757513093
18987 6217532.998004859
18988 5985114.1793113975
18989 5532260.785060322
18990 5021026.324858865
18991 4670566.455910372
18992 4362735.300758672
18993 4097057.9881264884
18994 3864538.8701649797
18995 3678951.8565143803
18996 3465345.1602475015
18997 3419535.899252083
18998 3528955.8774323505
18999 3727017.348120752
19000 4014665.180139395
19001 4422281.010747373
19002 5035457.133297667
19003 5483645.401658013
19004 5963421.4131349195
19005 6369819.943476653
19006 7238723.0851169145
19007 7260272.548084408
19008 7506904.682084529
19009 7623917.895643324
19010 7762433.965677583
19011 7977781.788293268
19012 7691728.393376065
19013 7913666.070586056
19014 8081561.936441658
19015 8093234.387281058
19016 8081659.270861964
19017 8078677.025501703
19018 8050478.515185161
19019 8029107.36108363
19020 7815136.440561228
19021 7608021.994925473
19022 7436563.516634323
19023 7108688.852244818
19024 6846429.706521255
19025 6672055.019610908
19026 6520500.6154463105
19027 5671869.148969456
19028 5456895.015520999
19029 5390057.871233319
19030 5027560.492175994
19031 4889069.393468805
19032 4768029.863330765
19033 4675925.181524079
19034 4563511.148203765
19035 4394648.000841605
19036 4205614.630533689
19037 4004077.2111771954
19038 3675219.507410477
19039 3377943.148984091
19040 3328660.6398768877
19041 2609172.368951348
19042 2325389.280772463
19043 2077077.6186781006
19044 2019986.31643437
19045 1968244.3345140936
19046 2017012.7299093246
19047 2126623.884538631
19048 2318650.050583051
19049 2590202.8314961214
19050 2869902.337373771
19051 3397514.9296632516
19052 3699408.2859342783
19053 3950357.520496705
19054 4173261.81433396
19055 4462829.995173984
19056 4633617.312010413
19057 5443983.988908787
19058 5661798.691480821
19059 5868419.733937282
19060 6054160.191890425
19061 5670034.805043295
19062 5730738.081774586
19063 5864733.483487372
19064 5821880.174551553
19065 6286976.992102792
19066 5967113.898208904
19067 6119550.220246481
19068 6557758.682601025
19069 6686989.373680667
19070 7157334.054082814
19071 7188131.615923349
19072 7157726.146178524
19073 7179412.498561188
19074 7255395.056306332
19075 7341762.839949047
19076 7460388.409613323
19077 7475964.046669609
19078 7489124.383770942
19079 7448240.860457341
19080 7385368.933077486
19081 7292072.72045704
19082 6525617.699043303
19083 6306048.756647406
19084 6058017.29410704
19085 5794360.734625688
19086 5560446.645071873
19087 5346860.089835075
19088 5160516.935560141
19089 4987085.41632485
19090 4970685.832348448
19091 4751313.5577787245
19092 4615733.688657881
19093 4460189.895450844
19094 4127271.83518065
19095 3361550.9328450686
19096 3144777.3489305372
19097 2953084.4103836296
19098 2808663.801790308
19099 2711716.2113419403
19100 2648915.7406482254
19101 2594180.4862880427
19102 2605540.4219063157
19103 2850447.1255476195
19104 2916701.9411005704
19105 2813376.2937516547
19106 2941828.3339814674
19107 3843539.5534218373
19108 3973186.952766551
19109 4128591.1335519613
19110 3733405.4541777847
19111 4109401.3424855345
19112 4109681.3222772554
19113 3886910.9728697944
19114 3890347.034726329
19115 4151643.567681871
19116 5050851.614172282
19117 5413657.140126415
19118 5696902.803656611
19119 5868489.409015241
19120 6028367.833095371
19121 6243212.439211141
19122 6338823.77701108
19123 6201869.887921709
19124 6165466.478398901
19125 6024353.712833389
19126 5775712.334445551
19127 5554642.381566859
19128 5344988.813618442
19129 4842258.90260601
19130 4771106.150875217
19131 5082519.640691917
19132 4955817.830718405
19133 4905025.051657274
19134 4812610.762245627
19135 4753387.6888814615
19136 4583882.27694969
19137 4562247.291664649
19138 4349044.22688712
19139 4114939.034719427
19140 3844468.3068207535
19141 3226059.8201751346
19142 2916196.251971916
19143 2728606.5043086377
19144 2613272.1378654265
19145 2565289.960319277
19146 2840501.060520446
19147 2818081.7841426698
19148 2797210.0011744443
19149 2709974.194786772
19150 2548826.079025918
19151 2494032.2368281255
19152 2413225.0679592434
19153 2352740.8117095623
19154 2195793.4034832683
19155 1833021.7773956864
19156 1741326.2392666072
19157 1111674.5496782325
19158 1020551.5884086584
19159 950002.7153705517
19160 892437.200328102
19161 894454.4001605193
19162 1112594.2933510104
19163 856754.6498244506
19164 791441.2154489845
19165 738045.9166338098
19166 783519.9216468651
19167 715671.2690624582
19168 764585.7088372405
19169 775339.1813943142
19170 863537.3873039162
19171 905028.3283002076
19172 945281.666786056
19173 993792.5522197775
19174 1104980.688643881
19175 1543828.356969202
19176 1759868.343805644
19177 2406250.5015825853
19178 2480081.447175865
19179 2582056.3730004453
19180 2666648.373754674
19181 2677251.6720190165
19182 2750222.3327063387
19183 2822879.087734974
19184 3300991.574213466
19185 3273095.20090614
19186 3238069.4732574914
19187 2920121.8565384387
19188 2801944.1765339645
19189 2511160.223074353
19190 2356891.2181209335
19191 2222526.266499993
19192 2067048.1736744547
19193 1808099.5545968653
19194 1171418.9717225062
19195 872453.9010259933
19196 799098.3568484229
19197 738203.2958034062
19198 721034.6673961964
19199 708764.2299629033
19200 883424.8256331192
19201 959830.0521420984
19202 995779.1470656641
19203 1370982.3572097078
19204 1768335.3092393216
19205 1918294.7322594328
19206 1713356.9868120106
19207 1879076.5524396142
19208 2016819.3353526362
19209 2203060.4217218435
19210 2431222.3651744067
19211 2639857.4917583833
19212 2845151.4123989125
19213 2998599.6443232144
19214 3622953.5727326632
19215 3735482.851199964
19216 3777342.6856240574
19217 3968505.337969739
19218 3873447.4411693816
19219 3779125.169144008
19220 3727806.698621126
19221 3250307.3723702636
19222 3232855.622870129
19223 3274675.330640012
19224 3326017.8687741733
19225 3406614.2940075276
19226 3513990.0167087065
19227 4171759.648351085
19228 4125356.1964314166
19229 4041640.7683182075
19230 3881326.2423033826
19231 3701298.6318123927
19232 3151977.926962667
19233 2703570.299670658
19234 2554031.90876043
19235 2451502.9809758426
19236 2559966.6040957766
19237 2818253.1579806604
19238 2987294.006773174
19239 3268888.1656995513
19240 3479354.880792554
19241 3478050.547593502
19242 4006864.225733059
19243 4053387.803985577
19244 4062407.0487434953
19245 3975779.108012292
19246 3796835.556179677
19247 3465914.1907630255
19248 2924262.9792321683
19249 2641683.5575350625
19250 2346758.624725158
19251 2186748.846624536
19252 2010501.8601598896
19253 1361106.337529993
19254 1276303.1363908742
19255 990920.867245537
19256 1024230.8183011609
19257 1228432.7855701458
19258 1027897.4431791209
19259 963695.1521309745
19260 968116.8438141863
19261 1085442.3772495112
19262 1255810.0430191313
19263 1289634.1583134404
19264 1319022.7531589596
19265 1572851.4622635138
19266 1780999.3128055895
19267 1879398.4385171945
19268 1786261.2522434196
19269 1900287.2723292832
19270 1863844.0018273103
19271 1550530.6532100602
19272 1537065.6065870572
19273 908730.5618749271
19274 1008263.0731191481
19275 961054.264688407
19276 968702.0168795185
19277 973510.8565639947
19278 941656.4267699305
19279 957433.3282124482
19280 1315724.9711351332
19281 1398449.4058360811
19282 1527781.2886109855
19283 1677786.3746911637
19284 1945437.4993676946
19285 2985395.2531677578
19286 3229129.7135252445
19287 3404673.7635543663
19288 3315354.783818098
19289 3276565.2302967138
19290 2682745.7858609166
19291 2609590.749810668
19292 2534640.7612598403
19293 2496650.6415536785
19294 2079024.6137062826
19295 2139023.8576864786
19296 2001118.3793093357
19297 2099625.6191981686
19298 2085187.5423203201
19299 2198524.797983077
19300 2916681.262683661
19301 3172523.52141119
19302 3361531.910161431
19303 3426953.588319818
19304 4056757.463124132
19305 4124443.9875305337
19306 4007379.5091866925
19307 3736647.09222597
19308 3611613.7147591985
19309 3457333.270936631
19310 3301689.909152761
19311 3115995.777141038
19312 2930295.241907365
19313 2750546.8007942205
19314 2343795.6030787686
19315 2224680.827670016
19316 2120603.9578510555
19317 2096442.0355987775
19318 2127501.553055791
19319 2058979.6447129208
19320 1973725.4597886058
19321 1761569.216134314
19322 1671351.4374820138
19323 1635069.5590300164
19324 1599509.9325434386
19325 1288405.9903643841
19326 1254594.035292562
19327 1223442.5633674373
19328 1256532.6125029651
19329 1268345.8714629556
19330 1343377.2730375435
19331 1421795.8215309132
19332 1437830.3869500004
19333 1604968.0155818753
19334 1657580.7256911537
19335 1699461.840551972
19336 1703100.0913100634
19337 1711985.4969764252
19338 1651847.4534019546
19339 1653313.6580062814
19340 1754300.7290394756
19341 1755204.080091653
19342 1751066.7103087527
19343 1807193.2070061741
19344 1982258.7048726697
19345 2492899.57946187
19346 2538997.907049225
19347 2748841.23369663
19348 3390479.1155878487
19349 3768484.661912728
19350 4192059.5430110553
19351 4931294.924217177
19352 5423373.520396691
19353 5855613.50166225
19354 6464363.233130221
19355 6628989.274374248
19356 7180740.26649957
19357 7853989.5942771435
19358 8612774.760459559
19359 9570096.974332942
19360 11129065.592887722
19361 12624209.80550835
19362 14438784.231199497
19363 16646931.192880142
19364 19759763.26955469
19365 23467515.528962225
19366 28273356.90649521
19367 33808709.97067916
19368 40830526.74572535
19369 48204192.57128151
19370 56744495.255872056
19371 66620233.39943114
19372 77602820.09674492
19373 89730845.28904375
19374 102311550.80519977
19375 113952541.95134664
19376 127213897.84139256
19377 143645887.542227
19378 156492114.76196808
19379 168311142.97563702
19380 178761926.56786293
19381 187758077.72716507
19382 196615748.13613346
19383 201704356.2781506
19384 204767674.38965216
19385 205810394.6120043
19386 204342089.7346809
19387 200732332.56918252
19388 195023537.1435333
19389 187490428.5671247
19390 176044652.8515391
19391 165516594.15771577
19392 154431576.3395135
19393 143380751.98654085
19394 132169564.96802638
19395 121116935.34561479
19396 111007630.82076345
19397 101954859.81752813
19398 95896781.5730929
19399 89133818.97438452
19400 83157006.18692309
19401 78500357.37266052
19402 74406052.33425952
19403 70547333.92485803
19404 64433102.001671225
19405 61417991.705298945
19406 58592786.93089974
19407 55951962.01340009
19408 53389111.051337086
19409 50552270.45707283
19410 47814837.126814224
19411 45263319.217473716
19412 42609243.00245436
19413 39988641.53565623
19414 37516896.680428565
19415 35421644.07943517
19416 33417465.322316363
19417 31797220.123452414
19418 31828493.966129024
19419 30981949.321007602
19420 30520857.516186584
19421 30324624.857991528
19422 29945480.40533562
19423 29947843.79013595
19424 29821688.07512227
19425 29871575.90187416
19426 29985236.30274736
19427 30148897.959328935
19428 30084672.34753547
19429 29953495.184638534
19430 29689515.892058115
19431 28951080.531717952
19432 28105270.73520386
19433 25027736.66820711
19434 23971950.067642506
19435 23052756.990747456
19436 22415736.142004583
19437 22041327.29669324
19438 21806859.954884984
19439 21765295.399024975
19440 20196968.529399578
19441 20029669.841791544
19442 21194387.47492743
19443 20698346.06836857
19444 20305282.320982374
19445 19497275.581613787
19446 18737986.537450384
19447 18081342.708601017
19448 17108738.97809947
19449 16471087.852005562
19450 15946789.8265395
19451 15367621.907554084
19452 15033868.555897553
19453 14953998.37912458
19454 15135148.4891689
19455 15111281.122635232
19456 15108972.788221791
19457 15863070.864628272
19458 14332867.061748313
19459 14289012.033169681
19460 14397896.765367301
19461 14834103.252109656
19462 17089567.96485575
19463 18241525.354671102
19464 19589702.495227136
19465 20987619.93307253
19466 22306213.253782805
19467 24136689.646654475
19468 23823646.26504019
19469 26002036.48185798
19470 29461646.39841632
19471 32204532.78573133
19472 35360274.59793152
19473 38753253.86072355
19474 42393499.45247616
19475 46289518.27196878
19476 50211697.01581792
19477 53882737.07978429
19478 57412830.2592906
19479 60923970.43013996
19480 63284231.044013254
19481 64589503.653985105
19482 65270153.02531343
19483 65252541.09752635
19484 64631655.36409548
19485 63367388.07530126
19486 61497711.202717654
19487 59102641.38465611
19488 56601367.02787484
19489 53388886.6300193
19490 49840930.31595496
19491 46356451.08136464
19492 43114843.066352434
19493 39793003.16850494
19494 36688174.22109409
19495 34056284.76714641
19496 31785151.970725663
19497 29695991.55591628
19498 28316309.602461375
19499 26979694.187984627
19500 25987329.82481778
19501 25169912.639319174
19502 24436114.799098816
19503 24882887.5092395
19504 24497074.886461485
19505 22196158.556031633
19506 21181958.374065213
19507 20015135.129885126
19508 19073023.708998118
19509 18293392.996939883
19510 17575053.904323563
19511 17002853.507108174
19512 16558997.776575735
19513 16180818.279883167
19514 15781899.064417023
19515 15620414.92515568
19516 15411317.669486463
19517 15316657.572601523
19518 15442049.150414784
19519 16689137.129980924
19520 16777493.17249753
19521 16695435.740787948
19522 17000923.69595292
19523 17455652.261219107
19524 18156018.601793636
19525 18355533.59021647
19526 18190153.26845449
19527 17534887.00328574
19528 16913981.83010817
19529 16269372.440774042
19530 16023607.443021916
19531 15361611.949455647
19532 14723741.641635297
19533 13172934.597538281
19534 12837649.809464308
19535 13121035.492647232
19536 11878997.214683209
19537 11594495.228276048
19538 11329078.260401594
19539 11165685.453982126
19540 11007990.825748125
19541 10995728.751581805
19542 11078012.674038904
19543 11165806.587742738
19544 11219349.756698562
19545 11269979.999204645
19546 11227964.034012066
19547 11579532.14384087
19548 11643001.051603323
19549 11572280.546378134
19550 11930180.097123161
19551 11545654.39779961
19552 11107793.063687073
19553 10692718.133963471
19554 10243786.161375554
19555 10186957.226778256
19556 10572123.099298546
19557 11821903.071402874
19558 12714342.817445401
19559 14121581.089723863
19560 15211298.813553445
19561 16267520.573893107
19562 17385082.995203655
19563 18272011.996554412
19564 19011858.269789662
19565 18816626.491186965
19566 19047355.854650304
19567 19140977.455378536
19568 18839618.22924897
19569 18882885.22713442
19570 19092158.91799677
19571 19329802.48784417
19572 19772664.28542154
19573 20484850.063859828
19574 21732051.439519253
19575 22682073.34915562
19576 23544946.995985202
19577 24252513.615999732
19578 24641013.799922246
19579 24733847.226833265
19580 24565104.30945406
19581 24237182.566499017
19582 23831513.263334256
19583 23384574.28183811
19584 22934200.44725972
19585 22575001.451484375
19586 21762378.207231835
19587 20889845.658265468
19588 19917730.11076579
19589 19034825.567606468
19590 17336487.754480995
19591 16385283.235831728
19592 15406132.478327239
19593 14562628.244825246
19594 14615893.449287675
19595 14317165.253393248
19596 14191472.336911233
19597 12911833.80608386
19598 12359476.818385778
19599 11875619.760340385
19600 11438976.02609867
19601 11030197.514216911
19602 10653640.74694297
19603 10321495.645339875
19604 9875307.21939026
19605 9484726.867684495
19606 9707027.810036335
19607 9552148.46674842
19608 9406238.193772677
19609 9299302.357609868
19610 9230305.11082289
19611 9293908.271242503
19612 9501847.3728449
19613 9663943.413239006
19614 9569561.964219078
19615 9428545.046234038
19616 8603904.570500351
19617 8552060.921134409
19618 7707979.885702706
19619 7546797.580404189
19620 7630809.544252596
19621 8349358.668959015
19622 8635986.13529107
19623 9673821.572160978
19624 10087170.751495993
19625 10666953.097973434
19626 11075933.154821374
19627 11102233.215930833
19628 11118582.333915807
19629 10881621.766370187
19630 10564364.175720938
19631 10238353.33854754
19632 9958804.872078152
19633 8681106.726709332
19634 8417804.527861722
19635 8094001.125016735
19636 7813667.506177048
19637 7658801.189201599
19638 7703324.273230584
19639 8536974.57980511
19640 7808766.340014498
19641 7881111.039531236
19642 7594365.89699746
19643 7469665.886444402
19644 7514879.733195427
19645 7725104.044153971
19646 8037547.811541943
19647 8362202.733807942
19648 9398340.667721147
19649 9558772.218786089
19650 9562712.27575141
19651 9442430.061201744
19652 9299054.154651774
19653 9137515.68045257
19654 8991067.029555252
19655 8721683.360708635
19656 7613959.961412598
19657 7571838.811374868
19658 8522883.915607128
19659 8749428.391055703
19660 8644884.409498721
19661 8970740.26230149
19662 8325250.392315704
19663 8365093.784906286
19664 9472317.026233999
19665 10447659.50794625
19666 11514649.134936418
19667 12798216.331049392
19668 14195163.950789427
19669 15306335.565078616
19670 17637167.69438597
19671 19291508.20352824
19672 21244847.57165251
19673 23632725.58030481
19674 25454090.813718986
19675 28533513.284343034
19676 31939314.84678748
19677 35724164.46199073
19678 40788822.28042054
19679 46962958.47037452
19680 50742296.64169916
19681 53789701.69034248
19682 55999728.72228194
19683 57375375.541332364
19684 58033793.56477414
19685 58126532.456092305
19686 57916256.09328331
19687 57517954.9700199
19688 56204515.10894924
19689 53541310.757081725
19690 51332591.18937162
19691 48959879.76086208
19692 44656464.78196631
19693 42202851.77137016
19694 39864590.45604845
19695 37966268.12384267
19696 35792955.12073882
19697 35340178.07842989
19698 33735764.34734236
19699 32608642.376044147
19700 31180510.362008646
19701 30398422.14490604
19702 29579174.754004132
19703 27888456.83245777
19704 27428576.437097926
19705 27717413.49760518
19706 28231066.918081626
19707 28788957.19529914
19708 29234117.722386386
19709 29413329.395365737
19710 29370444.80994783
19711 30115875.75929067
19712 29243125.30661981
19713 28252427.14293249
19714 27102667.544995718
19715 25886065.858407058
19716 24773319.175218817
19717 23761717.04205289
19718 22818090.247856148
19719 22019264.944748495
19720 21383485.364800006
19721 21006667.109337218
19722 20692909.074931595
19723 20564402.98073457
19724 20686676.391794108
19725 20807875.50601493
19726 21023077.60561516
19727 21443279.86962811
19728 21927392.741040524
19729 22509371.978238564
19730 23118665.78659199
19731 23543036.23257923
19732 23634625.92604241
19733 23120572.739221115
19734 22427739.08920236
19735 20663090.486421242
19736 19805413.197629906
19737 19197760.55010957
19738 18872567.525671136
19739 19285453.244017255
19740 18743763.62811952
19741 18410933.545503017
19742 17910902.72794018
19743 17316671.75105744
19744 16706374.925834104
19745 16095804.891831137
19746 15664481.386328131
19747 15324119.471483322
19748 15124428.305104747
19749 14997596.951750817
19750 14878839.801866721
19751 14502621.396143606
19752 14078077.724727526
19753 13768047.668062128
19754 13653753.259279087
19755 13498050.167909564
19756 12525958.03360316
19757 12328475.573681159
19758 12439868.996508526
19759 13548207.482397996
19760 14246556.142518716
19761 15041866.149507256
19762 15825940.457554052
19763 16440215.762667779
19764 17236539.531317666
19765 17400589.83340657
19766 17532867.1288991
19767 17552042.415575225
19768 17481888.799602464
19769 17768641.443430394
19770 17863756.826625045
19771 18135713.498881117
19772 18292730.728689708
19773 18209760.709594462
19774 18914234.44666654
19775 19512564.39209902
19776 20863101.74514964
19777 22487429.11677812
19778 24018330.565297216
19779 25286092.0551491
19780 26329814.863644082
19781 27122399.794955947
19782 27480461.739387546
19783 27471802.264920738
19784 27179148.788353547
19785 26535909.24758459
19786 25703923.157054305
19787 24541998.07733974
19788 23595309.861896623
19789 22764455.7252571
19790 21986687.113001436
19791 21413729.386788104
19792 21470269.534398172
19793 21071391.84463356
19794 20815558.028116755
19795 20648374.637981802
19796 20373601.74036228
19797 20037313.830302097
19798 19535234.022586334
19799 19237442.672164395
19800 18164046.797509857
19801 17225409.97581283
19802 16403215.790282657
19803 15684745.75542492
19804 15164646.421856169
19805 14791154.075827364
19806 14598301.629364481
19807 14499193.723471707
19808 14407915.833035594
19809 14317188.910673032
19810 14186533.08884193
19811 13999089.771748131
19812 13781499.904874092
19813 13586488.543343598
19814 13523102.460221577
19815 13284989.670075497
19816 13022981.056010334
19817 12107049.25932775
19818 11765354.432544526
19819 11469143.788769579
19820 11091368.821872866
19821 10646263.970817968
19822 9895078.388224017
19823 9286634.954857582
19824 8631417.43474128
19825 8237107.0283298455
19826 7846208.967783984
19827 7635344.456011503
19828 7356924.504260974
19829 7467451.501500895
19830 7718031.808844363
19831 8578361.023556555
19832 8902978.9802469
19833 9233918.122490548
19834 9437127.091513805
19835 9588318.630317485
19836 9757478.828373602
19837 9579992.53686324
19838 9525519.94147199
19839 9432740.409226364
19840 9434828.826708823
19841 9173692.982634636
19842 8879111.5360611
19843 8501470.755369613
19844 8168650.16850811
19845 7701626.650616912
19846 7214043.054602038
19847 6945100.276283391
19848 6906741.596007553
19849 6744595.283427352
19850 6662257.474960258
19851 6694442.24600979
19852 6432576.725833413
19853 6596141.63358708
19854 6764820.968021351
19855 7016618.64941628
19856 7389252.008415959
19857 8205607.497128815
19858 8499105.150389057
19859 8725044.262132334
19860 8807898.095605016
19861 8622615.965105517
19862 8422912.137074895
19863 8257713.273087702
19864 8063080.484400143
19865 7937139.564418646
19866 7854507.811113282
19867 8010990.105589755
19868 8230014.865411738
19869 8794940.073331384
19870 9366937.683472743
19871 10115360.173008354
19872 10737662.483108606
19873 11881085.384261435
19874 12950510.975172592
19875 13788910.355760422
19876 14611324.361867268
19877 15644459.971128354
19878 16518363.324818056
19879 17511797.75644218
19880 18289087.8649881
19881 18543480.993080422
19882 18828530.610325668
19883 18795864.836162176
19884 18566978.6907728
19885 18290635.969539728
19886 17899905.439487875
19887 17546506.814152103
19888 17133404.85086217
19889 16679048.200664759
19890 16171220.618959138
19891 15579943.045873208
19892 14917695.171127915
19893 14094876.384675378
19894 13452910.142749097
19895 12634176.91785256
19896 12301957.407520734
19897 12236724.304037848
19898 12425527.886127615
19899 12625013.374104284
19900 12619580.67405037
19901 12127625.16967645
19902 11960384.221060842
19903 11499261.73676844
19904 11667418.317819603
19905 11382798.049071105
19906 11031224.834139502
19907 10675950.10670331
19908 10302769.52048911
19909 9872054.028737871
19910 8899066.176708478
19911 8443732.540651161
19912 7920187.266394847
19913 7525788.617346925
19914 7182754.9629581
19915 6971411.199189153
19916 6921888.588639255
19917 7221656.560563311
19918 7249038.969709161
19919 7180058.051519394
19920 7107358.369823735
19921 6501699.195720558
19922 6583002.882979942
19923 6571928.176545556
19924 6663214.040531518
19925 6622086.677109041
19926 6555904.607881964
19927 6559675.10126634
19928 6389988.123087091
19929 6633687.649543363
19930 6433812.372156819
19931 5459598.533155739
19932 5082287.116192069
19933 4787442.508561924
19934 4583952.11728658
19935 4375344.008409147
19936 4573470.430706679
19937 4764511.263130393
19938 4931229.758461834
19939 5217342.312697396
19940 5519734.261733593
19941 6152207.113337075
19942 6400978.557110575
19943 6626651.11914963
19944 6695675.789757454
19945 6844522.515063074
19946 6945722.7592261555
19947 7301013.064200541
19948 7281947.6759573035
19949 7238861.351685221
19950 7122191.1876909
19951 6934671.894491186
19952 6793853.767119011
19953 6691204.984927512
19954 6803720.104788998
19955 6815389.815559787
19956 6168189.094982751
19957 6296938.062587475
19958 7201141.638522863
19959 7528090.50540311
19960 7634279.585005677
19961 7792182.184153621
19962 7880967.778297227
19963 8084783.360634086
19964 8328269.5501586525
19965 8321636.296535975
19966 8570021.005416587
19967 8836434.972931681
19968 8890867.227437854
19969 8890219.12148767
19970 8799840.798405996
19971 8692626.399146143
19972 7404912.303316313
19973 7278818.958761055
19974 7108417.091069414
19975 6947631.977931432
19976 7130801.431903267
19977 7811022.918078135
19978 8635642.214223962
19979 10836010.79739665
19980 12061346.40877192
19981 13301454.568332268
19982 14528370.178532006
19983 15697053.139394343
19984 16473672.116770277
19985 17081687.62889186
19986 17482321.66034956
19987 17699284.282462105
19988 17650134.914497282
19989 17341331.708913893
19990 16411758.28555782
19991 15595105.925000465
19992 14608819.4140508
19993 13554199.249763483
19994 12545351.983663524
19995 11473865.422770346
19996 10730233.510767167
19997 10082089.215089861
19998 9527193.089956313
19999 9075677.020128626
20000 8787841.520490466
20001 8825307.601978669
20002 9170925.451722078
20003 9736916.476649014
20004 10438968.010762438
20005 10817397.715510298
20006 11155244.636088567
20007 11308444.820762524
20008 11321498.627161747
20009 11199669.33651813
20010 10983350.182433939
20011 10551937.039976524
20012 10092287.929134173
20013 9600983.180084953
20014 8933911.84523621
20015 7734393.605244108
20016 7197167.761552692
20017 6810016.548996127
20018 6930266.53428312
20019 6729871.2031679535
20020 6583564.943712783
20021 6502280.474263719
20022 6209877.884760891
20023 6439383.063195967
20024 6696059.037023986
20025 6878286.047331888
20026 6075073.801644916
20027 6213695.569800593
20028 6413667.510997372
20029 6765911.869909545
20030 8219091.06633364
20031 8545548.476723827
20032 8843183.261801677
20033 9007989.134076921
20034 9099520.832431048
20035 9184415.86213247
20036 9058859.264242288
20037 8849909.459443951
20038 8619834.282300148
20039 8350734.156407699
20040 8031258.517002935
20041 7692415.29102137
20042 7169205.4515558295
20043 6773088.717242328
20044 6748112.548603895
20045 6394508.745108398
20046 6187671.415371689
20047 6133446.766079308
20048 5904162.811850079
20049 6162311.473971505
20050 6284763.160468937
20051 6467165.844769411
20052 6687741.0547819305
20053 7138952.041789372
20054 7785762.43904473
20055 7921448.609745906
20056 8567644.789081607
20057 9085004.060057389
20058 9536500.527928608
20059 9830799.743137373
20060 9987546.73170735
20061 10023874.657150548
20062 9897406.287340403
20063 9711832.9567764
20064 9496852.988987051
20065 9269158.86676026
20066 9024413.769335115
20067 8851213.806129921
20068 8762071.680137575
20069 8636126.420211686
20070 8446429.467635559
20071 7842501.948500376
20072 7438470.3353446685
20073 7298841.361587619
20074 7513500.548378605
20075 7471767.123961174
20076 7305494.392113994
20077 7120348.206829431
20078 6909333.734708994
20079 6787715.274152193
20080 6788290.288411687
20081 6866073.834381858
20082 6877784.603274302
20083 7081976.159704336
20084 7159453.07007214
20085 7333186.270586121
20086 7487761.096600678
20087 7652282.994207915
20088 7799942.4445140315
20089 7846582.177376628
20090 7813601.287868638
20091 7736787.9324581055
20092 7542535.566942853
20093 7187281.371765846
20094 7456136.867882855
20095 7161740.321596843
20096 6923034.172324265
20097 6757709.109104402
20098 5912444.99273652
20099 5676872.709839842
20100 5513925.255759859
20101 5315694.658114983
20102 5564472.064008782
20103 5379465.516885439
20104 5152852.53613222
20105 4934996.534254633
20106 4794128.188907715
20107 4381455.698759418
20108 3989068.0008579013
20109 3819070.6437984426
20110 3648445.2630847367
20111 3504015.5404347344
20112 3367243.029902296
20113 3115320.4528987883
20114 3034488.6806404176
20115 3017073.7504840507
20116 3077084.1843105503
20117 3089619.4269181006
20118 3189297.4511063574
20119 3342027.856691071
20120 3535526.7111126836
20121 3762677.613727514
20122 4087425.6786539643
20123 4291044.141620502
20124 4621907.825111626
20125 4843556.946910917
20126 5083751.535012404
20127 5181420.725523182
20128 5372884.010096023
20129 5363359.985731822
20130 5393571.962807655
20131 5434190.796172575
20132 5472029.072109632
20133 5186645.444467522
20134 4950127.909003599
20135 5399848.526842732
20136 5211491.723345759
20137 5132790.386797461
20138 4688503.247378422
20139 4681998.717305951
20140 4758649.446042603
20141 4731153.094364057
20142 4697262.5011534905
20143 4656779.874352107
20144 4590295.300133615
20145 4482086.965204767
20146 4363984.985361037
20147 4136590.0860123895
20148 3915827.963414335
20149 3599640.0233070306
20150 3318925.430489042
20151 3010898.792879067
20152 2447209.2477203445
20153 1764550.0130667433
20154 1617921.4451114938
20155 1100711.5537608473
20156 1011102.8470464099
20157 932284.3555678754
20158 1161482.5525083859
20159 1078001.7989351333
20160 914801.1755852714
20161 849472.0411679611
20162 795862.9749769393
20163 762149.1917004678
20164 536317.7203152252
20165 541599.1926668846
20166 548946.9992503024
20167 581699.18406687
20168 632886.3386246915
20169 981303.6684943876
20170 1083527.536256806
20171 1533443.3956815102
20172 1668601.9604933283
20173 1789055.3953632307
20174 1921510.9511428871
20175 2054138.0574400232
20176 2173602.4416175555
20177 2360444.1016371096
20178 2533407.7900756956
20179 3317921.8617911856
20180 3505069.226854221
20181 3677933.330453795
20182 3750852.97084246
20183 3887236.3159637814
20184 3929730.2593127466
20185 3332877.622531277
20186 3549296.5586626767
20187 3537575.0577329453
20188 3529561.6208343874
20189 4052598.381360376
20190 4080474.513740937
20191 4101183.4862080812
20192 4266254.274165351
20193 4364180.109828028
20194 3842971.166443014
20195 3947545.8752919505
20196 4726543.383213997
20197 4782171.129075728
20198 4720636.098686919
20199 4651920.777313436
20200 4637679.894512036
20201 4601810.49037693
20202 4624175.146357365
20203 4570740.067983503
20204 4523450.879577244
20205 4358167.488220508
20206 4236536.153364388
20207 4167964.153202563
20208 4117375.9411031925
20209 4105392.9013866666
20210 4125679.310255041
20211 4024962.577515506
20212 4009686.940247362
20213 3425990.248560859
20214 3488069.588175894
20215 3502657.9435758106
20216 3435432.7407759028
20217 3526934.8160046977
20218 3610897.920606692
20219 3467633.211422023
20220 3392521.6366336867
20221 3290116.816139771
20222 2439486.90594747
20223 2237459.004221903
20224 2057148.8749892747
20225 1894412.0242525672
20226 1269177.1658197334
20227 1175438.0846233591
20228 1082797.1103555977
20229 956046.7270634548
20230 904522.2605151593
20231 547032.210570005
20232 527656.5136484469
20233 848447.9519827577
20234 840838.7453211716
20235 842067.6929350848
20236 902513.6508898602
20237 926354.4692615116
20238 997294.4169174857
20239 1069573.6150339672
20240 1554044.641597382
20241 1803542.5605398642
20242 2040526.5348093235
20243 2311144.278007435
20244 2616326.988365714
20245 3636660.7392456825
20246 4009283.603668578
20247 4345409.839760622
20248 4763736.91937192
20249 4792100.122384199
20250 5055821.858187577
20251 5042106.528230194
20252 4194149.4952044142
20253 3883629.499194133
20254 3627397.9570887815
20255 3327736.735410304
20256 2219707.7548357137
20257 2051006.1579651143
20258 1955852.4785448888
20259 1798000.7114477311
20260 1655245.051171652
20261 1586127.1422384486
20262 1485315.2210063485
20263 1411726.1592367124
20264 1357800.9162578215
20265 1351807.7107518467
20266 1363142.9090647374
20267 1341458.499352287
20268 1323131.3796937156
20269 1300377.48438875
20270 1275207.533426585
20271 1260910.614979544
20272 752003.3047285886
20273 750858.9947262353
20274 746710.2320461229
20275 747458.0831292393
20276 453580.0461549541
20277 462920.0423832818
20278 476302.7746150035
20279 1135298.2807792386
20280 1096510.477426207
20281 1145404.604650568
20282 1682021.7103546432
20283 2177290.09178009
20284 2509426.496065087
20285 2563627.0966704786
20286 2712420.7071160725
20287 3054516.418105634
20288 3312054.4685156136
20289 3587919.79106375
20290 4800769.631518226
20291 5375838.432674103
20292 5678253.8339369185
20293 6058385.534689974
20294 6266655.949030995
20295 6800817.7623023465
20296 7135212.356265893
20297 5109089.102835505
20298 5553685.022863
20299 5905377.807259525
20300 6270372.622224336
20301 6593857.442502046
20302 5979925.419051483
20303 6139914.9389464315
20304 6188992.210933956
20305 6183693.57356219
20306 2343717.1158221
20307 2241656.313831325
20308 2123232.106555032
20309 1981884.9688865114
20310 1838830.0126605732
20311 1708693.2498695431
20312 1593095.9210533279
20313 1513090.1971348498
20314 1466852.2346181138
20315 3071477.243667941
20316 3173748.3533473616
20317 3358147.4437958323
20318 3644321.340034846
20319 5666417.296284094
20320 7779127.865239046
20321 8568616.89920732
20322 8927915.256089034
20323 9202382.960302131
20324 9433688.308222512
20325 9393116.632162748
20326 9578305.521890376
20327 9761581.718564287
20328 10514740.151410125
20329 10342330.99434899
20330 10413243.71433579
20331 11612277.511944395
20332 11686794.304074926
20333 11744938.33510328
20334 11813621.795630667
20335 10296571.866460511
20336 9151009.848804658
20337 7836789.255154615
20338 5468263.789084368
20339 5123659.609869852
20340 4828281.0780667355
20341 2810977.0526161497
20342 2684786.357263651
20343 2599718.8452417036
20344 2536059.2801200245
20345 2481574.35196967
20346 2344371.9849602235
20347 2278547.821104118
20348 2215850.268078556
20349 2161627.400767164
20350 2117031.9412223054
20351 2085164.9373580888
20352 2056474.8577889404
20353 2035727.253447073
20354 2009095.855729427
20355 1998722.282824263
20356 1997825.8406673693
20357 2015266.301859056
20358 2821545.2474100855
20359 2877733.2822018443
20360 2964059.131813153
20361 4262951.893606432
20362 4377738.728714792
20363 4450071.235207161
20364 4465741.311918655
20365 4436223.918165515
20366 4356161.108015912
20367 4288217.437519816
20368 4257041.488850337
20369 4191601.770890603
20370 4278430.398065636
20371 4427236.499050579
20372 6261076.53327189
20373 7196381.244370106
20374 7371638.370203409
20375 7561628.096148979
20376 7744521.224259955
20377 7946559.480153139
20378 8164112.599830577
20379 8618158.570993211
20380 8535971.411927156
20381 6970011.483822386
20382 7964078.260728319
20383 5968358.986054582
20384 5388767.770770906
20385 4896630.437016961
20386 4576942.038255214
20387 3478820.4682108294
20388 3611085.6127976286
20389 3691838.7039012625
20390 3307333.638610015
20391 3417018.679545464
20392 3528887.291016062
20393 5105282.9058581935
20394 5259232.555432668
20395 5513558.042994753
20396 5904952.544823229
20397 6409343.874978408
20398 7011581.983035509
20399 7635688.818208253
20400 8262161.868898186
20401 8801304.6622048
20402 9246993.270742808
20403 9505271.605535565
20404 9620546.29584111
20405 9550277.24256794
20406 9359492.015732687
20407 9031849.55427142
20408 8500457.420001712
20409 8122675.466535191
20410 7836906.194244777
20411 7621713.954998116
20412 7483465.036199112
20413 7372960.714431903
20414 7279606.822527339
20415 7226174.323751186
20416 7228202.945520925
20417 7405644.078928319
20418 7482654.418702507
20419 7538989.127586095
20420 7533097.073340541
20421 7554708.162254677
20422 7617866.542730512
20423 7711133.294918103
20424 9276136.720982462
20425 9277995.911285598
20426 9202970.443009015
20427 10960978.238543238
20428 10756357.486020187
20429 10537021.423270024
20430 10252666.543695573
20431 9893270.234630814
20432 9488327.124828959
20433 9026576.769240085
20434 8572127.820419008
20435 8099212.470979314
20436 7774327.688951448
20437 7665441.550122427
20438 7782182.380290044
20439 8056794.602024212
20440 8469665.105028916
20441 8947536.147968708
20442 9533342.173602346
20443 8700608.006766258
20444 9236169.735868646
20445 10949482.882751783
20446 11696478.463728158
20447 10775676.83022371
20448 11421707.18555
20449 12036011.786503375
20450 12772746.989005733
20451 13145856.921427244
20452 11332828.980432296
20453 11127979.109169563
20454 10758268.128050923
20455 10180922.45148735
20456 9435273.211142244
20457 8638625.375462873
20458 7821592.522620915
20459 7001651.585295211
20460 6221615.1481094975
20461 5591973.081428984
20462 4999703.942234291
20463 4657691.141335471
20464 4473363.7513995925
20465 4442257.295439031
20466 4474854.18759905
20467 4539294.768215966
20468 4638628.1301146
20469 4723495.334003956
20470 4794689.434141168
20471 4931915.663189346
20472 5020738.352958331
20473 5119777.114101752
20474 5211464.730464478
20475 5284627.558596115
20476 6294442.488410296
20477 6266862.34836358
20478 6179659.53753508
20479 6067951.779660259
20480 5965021.4607850555
20481 5900704.698825468
20482 5878746.488915054
20483 5904798.071018914
20484 5951886.105671885
20485 6039010.163872567
20486 6114446.932292438
20487 6169760.718343353
20488 6169036.428496855
20489 6216950.6323433295
20490 6193305.3593698535
20491 6172799.825089418
20492 6210741.552378931
20493 7601929.840139836
20494 6840190.629102573
20495 7556040.217298472
20496 7894421.387602862
20497 8134744.2207057355
20498 8257731.971336722
20499 8185721.743701727
20500 8200218.049542552
20501 6290119.267693835
20502 5186451.024763963
20503 4979804.130547318
20504 6307513.358747899
20505 6425265.245805449
20506 6602232.038391047
20507 6954820.312169096
20508 7353730.190948918
20509 7824779.587297225
20510 8365468.8341517635
20511 8843548.767386442
20512 8960670.071224306
20513 10146366.81104486
20514 9283345.48552807
20515 9293425.125233883
20516 7851891.027960244
20517 7789355.167986117
20518 7750658.225978343
20519 7735008.329945954
20520 7722644.486064205
20521 7706042.627570901
20522 7678043.329339731
20523 7639627.04759538
20524 7547268.733537356
20525 7468865.37114152
20526 7370142.21352402
20527 7241608.191837517
20528 7071438.246646968
20529 4854451.694088135
20530 4606149.140640561
20531 4435996.802584878
20532 4279912.546216466
20533 4152725.6952540576
20534 5709474.866171618
20535 5600135.255664174
20536 5481115.462348756
20537 5361557.714861477
20538 5212817.036288668
20539 5065284.125517626
20540 4988690.17509797
20541 6069670.530193795
20542 6028215.101678601
20543 5995516.522666329
20544 6840120.46326992
20545 5844015.579748842
20546 5921469.6127085
20547 6029633.974565013
20548 6079501.535778925
20549 6120467.663562769
20550 6177776.067318678
20551 6203768.907211587
20552 6312277.87020005
20553 6451538.071785196
20554 6595086.235777415
20555 6737212.561770759
20556 6921069.167788985
20557 7108661.457810111
20558 7321513.845916964
20559 7600477.002863523
20560 7976728.580003993
20561 8490752.604160564
20562 9190426.723000217
20563 9860609.875386544
20564 10466298.385767117
20565 10879165.271319337
20566 13046295.250360863
20567 13012134.687299246
20568 12797619.467671528
20569 12544446.86771585
20570 12239122.545894837
20571 12210700.150255056
20572 11811164.735672247
20573 11591683.494897863
20574 11323429.981472576
20575 11130000.880139908
20576 11597908.104285786
20577 11377558.390522668
20578 12021432.096459463
20579 12392479.059527734
20580 12828786.71356503
20581 13288741.828698626
20582 12486473.876877803
20583 12875476.665219786
20584 12497990.075099906
20585 12053162.042259803
20586 12548294.987280913
20587 12956829.358157253
20588 12825955.26571876
20589 13032350.390011523
20590 13054587.437033981
20591 12939100.297369607
20592 12762094.066790381
20593 12584872.524522329
20594 12493840.77724171
20595 12479872.822864179
20596 12586965.785440333
20597 12683005.455362925
20598 12738644.727765819
20599 12765135.796239996
20600 12740509.42283759
20601 12696835.606680578
20602 12642405.117717696
20603 12551534.907988232
20604 13374727.197358593
20605 13178160.464528264
20606 13241990.869547067
20607 14248211.910079256
20608 13741505.577271447
20609 13148278.761121206
20610 12572495.885064678
20611 12239693.001916252
20612 12072633.499412648
20613 12039297.411738414
20614 11980282.083721157
20615 11882908.51586565
20616 10252351.778510848
20617 9915006.48509572
20618 9672149.038872534
20619 9529380.65263291
20620 7746795.910371312
20621 7785684.403345313
20622 7972301.914012661
20623 7999428.095742466
20624 7781734.448853208
20625 8018371.125998594
20626 8298396.620945168
20627 8493379.881970627
20628 8613757.73378588
20629 8584358.944620365
20630 8371699.733020248
20631 8076315.086203615
20632 7607594.8389034355
20633 7042891.179896966
20634 6407593.157055146
20635 5842294.902596036
20636 5298192.986917639
20637 4843529.173629715
20638 4460964.258795257
20639 4205156.010085746
20640 3471854.9003484584
20641 3340384.693030114
20642 3277386.801233513
20643 4222507.214326443
20644 4214779.780884818
20645 4275217.096811298
20646 5032254.1784897735
20647 5800047.929212267
20648 6239077.393288184
20649 6794723.589988936
20650 8266738.344516872
20651 8904826.658634463
20652 9602342.92872919
20653 10216776.947773835
20654 10752159.342513071
20655 11192657.419788446
20656 11528620.480517134
20657 11799938.629695322
20658 11973734.580382984
20659 12271574.446692428
20660 12559766.217646107
20661 12745572.5901894
20662 13088224.131746914
20663 13496675.435393758
20664 13860332.935650505
20665 14271223.977014003
20666 15330818.000473034
20667 15725600.94855018
20668 15471616.491978515
20669 15709139.13753637
20670 16060221.801419742
20671 16074623.923906382
20672 15886128.575364366
20673 14548781.968232233
20674 12173280.746435184
20675 11829952.591645688
20676 11602717.02773218
20677 11437811.416088313
20678 11221373.68880503
20679 11041852.628406864
20680 10758446.264228236
20681 10370936.087855672
20682 9832121.22530952
20683 9201063.816464918
20684 8499608.129655244
20685 7769532.195678761
20686 7065092.0045393435
20687 6430231.2863730285
20688 5891173.84301845
20689 5453172.680803525
20690 5129651.667402293
20691 4931250.1470399285
20692 4846855.800477946
20693 4855002.813542299
20694 4882138.353046771
20695 3965043.9006049316
20696 4070778.470932265
20697 4211321.2542691985
20698 3545229.7822140832
20699 3689449.224975925
20700 3815976.7769283457
20701 3941502.161389549
20702 4069977.6653993377
20703 4173814.8266470507
20704 4275633.498885505
20705 5517803.866004261
20706 5729834.643883701
20707 5972016.730642609
20708 6944968.336822997
20709 7115758.689123548
20710 8535681.117719073
20711 8475701.866344597
20712 8459118.731722176
20713 8440815.034806322
20714 8415894.791364942
20715 8534526.999541214
20716 8727763.927268967
20717 8950667.908459492
20718 9231225.083274918
20719 9569608.144511865
20720 10066058.198946167
20721 10509439.109313922
20722 10979414.665061228
20723 13570789.491845263
20724 14053595.889416572
20725 14513549.615474332
20726 14884431.365206528
20727 15140766.295545418
20728 15235628.073400728
20729 15198992.068216698
20730 15037632.304461801
20731 14793057.098527748
20732 14531760.563724628
20733 14315808.199137568
20734 14019318.220656414
20735 13556472.801218767
20736 13110660.36908934
20737 12649851.806645859
20738 12321160.446771456
20739 11868341.778001228
20740 11471827.48362997
20741 11109572.339230571
20742 10575346.171262814
20743 10265846.11618805
20744 10055021.594942113
20745 9883065.594615009
20746 9802510.246106178
20747 9846816.647343282
20748 9969651.255171599
20749 10158722.422751332
20750 10447351.814601636
20751 11156349.622581346
20752 11173421.438312294
20753 11259654.244430207
20754 11272439.603176821
20755 11246132.863740824
20756 11201845.000946002
20757 11297851.508768573
20758 11224198.248963555
20759 11208013.611236576
20760 10260557.400981093
20761 10423582.555991648
20762 10463865.385669947
20763 10607082.798624044
20764 10801013.008331154
20765 11039625.612504335
20766 11294718.164402653
20767 11593618.585380642
20768 11946448.542476011
20769 12108766.816665351
20770 12625933.50022165
20771 13260644.107714279
20772 14097573.398342665
20773 14962677.446266802
20774 15950933.20386737
20775 16963180.104927327
20776 17912392.67862173
20777 18706223.44201089
20778 19269582.41676684
20779 19656857.257170223
20780 19893388.161436126
20781 20024293.74168695
20782 20186600.55036737
20783 21484231.60502492
20784 23436565.613379896
20785 23622665.967379663
20786 23743131.246186182
20787 23773070.3932805
20788 23596594.368168425
20789 23135636.98284019
20790 22591050.71465319
20791 21931047.3374208
20792 21006605.79040221
20793 20054193.56871623
20794 19069597.504236627
20795 18070062.889666144
20796 17215500.78826728
20797 16528281.595301813
20798 16033670.905697096
20799 15888736.9502387
20800 15917963.077004625
20801 15377797.949268164
20802 14283667.320862891
20803 14431152.310335375
20804 14613144.276128534
20805 14666655.543318221
20806 14619285.68342821
20807 14599618.879130881
20808 14850358.519966323
20809 14581763.357334511
20810 14292242.692706343
20811 14880257.14332432
20812 15911532.765697993
20813 15947645.066826569
20814 16156811.64342235
20815 16603406.193221878
20816 17121730.089787964
20817 17841637.537331495
20818 18377682.780966688
20819 18888926.743859082
20820 19432678.82943724
20821 19785966.56424646
20822 20152134.277196445
20823 20016107.42159145
20824 20059939.90166844
20825 19970701.925683897
20826 19779767.68716064
20827 18958861.61754055
20828 18533054.481794782
20829 18140918.983969547
20830 18182292.34052836
20831 17771097.239685386
20832 17289936.1054326
20833 16687841.150575144
20834 16100725.300238421
20835 14849521.316036288
20836 12639659.566519171
20837 12231625.425283387
20838 11581511.640674394
20839 11374854.615354355
20840 12620368.78371673
20841 12574338.745106682
20842 12659835.754188355
20843 12772815.67204728
20844 12881110.786795545
20845 11882749.887787899
20846 10092350.284038829
20847 10387445.21428819
20848 10462981.80392838
20849 10641276.932865296
20850 10988582.53414705
20851 13349280.96108396
20852 15068784.368601901
20853 14804654.498654347
20854 13406428.398665914
20855 13414583.627928758
20856 13229317.344029175
20857 13025212.713205423
20858 12288025.67481478
20859 12054929.048553972
20860 11933610.181929402
20861 11954966.486208338
20862 12144875.279944047
20863 12355103.048753964
20864 14484797.668103535
20865 13440318.042284327
20866 13332484.421997478
20867 13792694.952605223
20868 13379575.895096494
20869 12919296.887377422
20870 12457547.199615572
20871 12040657.539499825
20872 11773164.585132292
20873 11678993.146775002
20874 11698233.801389951
20875 11897299.045105055
20876 12203052.298253816
20877 12603435.896485543
20878 13044295.001214556
20879 13434255.660978684
20880 13738968.209019348
20881 13849699.927630281
20882 13772576.379686119
20883 13470795.96920307
20884 13004465.524480375
20885 12379558.136105988
20886 11659679.235439215
20887 10879059.37431677
20888 10136198.946040094
20889 8045441.580710211
20890 7580991.409393702
20891 7302851.391559937
20892 7271132.04896763
20893 7462692.038179578
20894 9140364.554494943
20895 9640823.127839347
20896 10204155.95697552
20897 10742140.334288398
20898 12341085.569320729
20899 12854496.403087374
20900 13290871.597051075
20901 13694258.832078105
20902 14111575.229534725
20903 13121417.251837293
20904 13319946.698599545
20905 13416534.703562528
20906 13374468.47534535
20907 12493709.388553932
20908 12323620.074143734
20909 12106108.132329026
20910 11881485.426616868
20911 11665791.485982416
20912 11477886.64294424
20913 9638256.768948065
20914 9458673.799294084
20915 9339172.48547193
20916 9238477.882992486
20917 9194142.939828
20918 8877194.640990969
20919 10862489.019290354
20920 10695576.216372808
20921 10643380.01024997
20922 11483619.318536181
20923 11447242.145069836
20924 11394896.85482007
20925 11535348.402451914
20926 11389297.6623206
20927 11022611.44492173
20928 10918447.218311792
20929 10276638.201350346
20930 10617643.362734308
20931 10625355.161855455
20932 10645283.425199214
20933 10625816.880891588
20934 9352810.489212167
20935 9331660.505052993
20936 9326936.156992845
20937 9523326.034481388
20938 9484410.853330627
20939 8894663.874985581
20940 8477737.296038922
20941 8275859.292335188
20942 7855036.54903895
20943 7872638.075118021
20944 7695291.69672556
20945 7510303.8775388785
20946 7356466.107304091
20947 7288307.568628915
20948 7328917.392205456
20949 7429613.057259912
20950 7627272.532636433
20951 8402243.75437502
20952 8139594.176093492
20953 7852994.798348668
20954 7880234.928364739
20955 8009852.358749549
20956 8250306.621718564
20957 8560907.212414963
20958 9093883.519753287
20959 9346986.307369785
20960 9586093.046831356
20961 9749605.945352444
20962 9645766.9685471
20963 9511402.632222833
20964 9264687.143320357
20965 8913492.452450834
20966 8368653.357438288
20967 7892263.53742033
20968 7298294.384467907
20969 6945259.100865954
20970 6692529.608917472
20971 6502220.165656064
20972 6387040.813068955
20973 6332323.165480588
20974 6401479.447830908
20975 6576747.383439934
20976 7012807.277888958
20977 7380537.053316317
20978 7722330.00002536
20979 9254437.95012865
20980 9491537.271544313
20981 9613563.604515634
20982 9698712.649674825
20983 9713370.435427243
20984 9698169.786313942
20985 9674356.205248443
20986 9663428.601480711
20987 9587373.736021679
20988 9554194.872417782
20989 9362581.06352084
20990 9155410.277884068
20991 8935890.595201297
20992 8683998.198423125
20993 8401797.022105621
20994 8110699.9810250485
20995 7794014.062055731
20996 7455992.261348735
20997 7163303.982117882
20998 6893942.788009026
20999 6734084.277797188
21000 6653399.482881655
21001 6661024.750176091
21002 6757940.340961177
21003 6781925.607419133
21004 7003735.0712189255
21005 7128575.198327555
21006 7389225.734693467
21007 7633028.995720564
21008 7860331.279828623
21009 8049592.317389444
21010 8832952.627241885
21011 8939236.494199751
21012 8904141.406967469
21013 8257038.93885104
21014 8325603.45029908
21015 8245960.455367385
21016 8151032.632739683
21017 8172607.526614317
21018 8036786.279658048
21019 7907247.092879769
21020 7884948.011828264
21021 7840391.264475204
21022 7903599.263174485
21023 7952070.342238979
21024 8071210.641051742
21025 8291084.5611738395
21026 8421902.680675842
21027 8645184.547894657
21028 9053767.15081866
21029 9331166.855222162
21030 9623798.228489142
21031 9876804.230383242
21032 10798710.289549435
21033 10915434.501442902
21034 10893467.840262614
21035 10834508.035434436
21036 10643493.528681703
21037 10192789.643400352
21038 9837949.641729357
21039 9429670.344529068
21040 8979241.66754377
21041 8623624.69194555
21042 8467615.789191242
21043 8198349.140393743
21044 8029320.431734967
21045 7855309.338919777
21046 7774740.9956581425
21047 6776457.028436187
21048 6848458.494836765
21049 7053426.952582297
21050 6763007.207487838
21051 7133670.221216077
21052 7212092.782277555
21053 7441100.576179662
21054 8910975.177849531
21055 9121535.505415037
21056 9285410.654464236
21057 9570820.43909886
21058 9478736.182164552
21059 9307246.6653256
21060 8828612.95548291
21061 8422249.800128583
21062 7963881.103479026
21063 7495430.083833095
21064 5247592.052466195
21065 4807644.162316553
21066 4450715.597903249
21067 4166996.6429162947
21068 3968188.5441781743
21069 4569573.391390047
21070 4475623.243890004
21071 4476749.700340915
21072 4420590.323727524
21073 4386310.24846466
21074 4379583.476979196
21075 4250539.099903207
21076 4322697.225362458
21077 4403521.344284856
21078 4510709.496012057
21079 4604425.4620602755
21080 4667972.889109031
21081 4716304.83035919
21082 4740576.734661014
21083 4762746.049729315
21084 4768576.943734873
21085 4772032.28484001
21086 4766030.331536715
21087 4789293.095557493
21088 4816896.756010458
21089 4916529.898648369
21090 4976292.0632808115
21091 5108625.708788762
21092 5306121.538441453
21093 5563148.704980093
21094 5951470.599063547
21095 6476244.508417659
21096 6890693.016026706
21097 7063329.936858391
21098 7320568.485460831
21099 7379244.838677765
21100 8360096.544812837
21101 8313390.604281383
21102 7271524.873301885
21103 7111946.370196801
21104 6901440.504315725
21105 6534103.758030515
21106 6194661.021710417
21107 5854855.921286609
21108 5559969.903352305
21109 5332521.642464466
21110 5184518.592869941
21111 5117556.064943573
21112 5053188.993830741
21113 5074093.992120814
21114 5108599.053518044
21115 5191397.175910536
21116 5565121.354340493
21117 5605877.153198681
21118 5640952.692017093
21119 5687491.48948661
21120 5680395.91663507
21121 5667488.250711351
21122 5651868.633611755
21123 5576429.221743535
21124 5570800.858996256
21125 5682104.692423861
21126 5715909.064522524
21127 5728969.295347565
21128 5739709.423506659
21129 5698525.529172213
21130 5630740.4783129925
21131 5405657.3517718315
21132 4430767.83606436
21133 4295912.61580988
21134 4130567.201274457
21135 4059468.634538965
21136 3263452.9303600136
21137 3289047.9457361586
21138 4093008.65766243
21139 4116676.2796597276
21140 4167172.047327146
21141 4250516.6100711515
21142 4379413.847093485
21143 4618448.6633528415
21144 4784942.274951137
21145 4766620.948580758
21146 4926905.169399816
21147 5090734.880007294
21148 5210693.811168426
21149 5370490.878818352
21150 5501568.91175896
21151 5618130.797371497
21152 5712442.488919188
21153 5742412.161083609
21154 5741272.797219142
21155 5738855.6203934625
21156 5685297.472996481
21157 4415512.334392565
21158 4810910.954615105
21159 4698479.02398298
21160 4732037.110935906
21161 4724129.130000632
21162 5393613.172151973
21163 5478207.031877473
21164 5636287.6288513085
21165 5702141.118003599
21166 6982999.341946636
21167 6905162.453767684
21168 7008099.912357407
21169 7354280.979162081
21170 7429048.08999756
21171 7290243.277516579
21172 7976740.3914271435
21173 7606144.850454589
21174 7269905.411944032
21175 6142952.5459081745
21176 5984959.745591536
21177 5990325.606008761
21178 5978548.981551563
21179 6068915.280648557
21180 6165847.818878767
21181 7412956.81190204
21182 7536248.309836293
21183 7711576.813718177
21184 7854988.995955821
21185 7918969.545718537
21186 7884531.023427595
21187 7750252.655503269
21188 7397934.432402266
21189 6944024.264452455
21190 6512157.011999636
21191 6008909.339602997
21192 5595722.440536713
21193 5257788.434691075
21194 4300650.628592582
21195 4068448.367965073
21196 3821308.4361162377
21197 3575716.632503799
21198 3369883.604882285
21199 3237488.3325715726
21200 3194283.0292901816
21201 3258705.287071717
21202 3439926.069993986
21203 3651744.7855981016
21204 3868280.8471301114
21205 3677764.0505138324
21206 4720020.055104882
21207 5179668.270723855
21208 6324983.2908278415
21209 6872414.569313156
21210 7372220.970048839
21211 7719215.154977136
21212 8250288.220765226
21213 8765942.907091526
21214 7586799.716039481
21215 7686632.093492021
21216 7468066.477093483
21217 7472548.921853835
21218 6726889.039122335
21219 6717084.152948402
21220 3129212.234701386
21221 2889759.704679812
21222 2711612.7226458453
21223 2603683.9613638246
21224 1399037.660775844
21225 1407172.2741099987
21226 2159819.37570409
21227 2120378.1929538366
21228 2181410.2143929787
21229 2313185.633330458
21230 2361372.6122475294
21231 2396199.4211055306
21232 2415851.869870804
21233 2437279.0769464513
21234 2441814.859427096
21235 2451059.769339768
21236 3199552.4221268734
21237 3178171.45333577
21238 4183260.883009399
21239 4115361.9740042933
21240 4043381.281456918
21241 3814605.6463166433
21242 4842755.214479932
21243 4683268.424462103
21244 5583984.23430057
21245 4812075.823239637
21246 4713562.1012573615
21247 4727498.628049559
21248 4388406.587687773
21249 4510313.053822465
21250 6265483.759789559
21251 6262016.01285421
21252 6416937.945337653
21253 6807563.3404009035
21254 7034064.573841947
21255 7143663.63769525
21256 7107927.178432225
21257 7181893.98127334
21258 7085469.526784476
21259 6899196.363294771
21260 6710056.555848755
21261 6489684.524647895
21262 6250762.7584056305
21263 6065691.73737849
21264 5937587.862328313
21265 5891052.803227316
21266 5731593.330346006
21267 5413013.838007394
21268 5256087.311693957
21269 5758214.906688724
21270 5537035.751074955
21271 5434857.014931138
21272 5356725.039837461
21273 5284113.315623449
21274 5294965.167575759
21275 5376656.579698611
21276 5350458.767785112
21277 5331578.923310377
21278 5235747.8571638195
21279 5092817.230837909
21280 3590405.9186859024
21281 3395533.632842688
21282 3241735.4847345487
21283 2785334.768557297
21284 2636526.3969854387
21285 2527787.7096584197
21286 2454887.9627952287
21287 2359127.587131708
21288 1766914.4914879547
21289 1720995.75562768
21290 1730423.0534879828
21291 1722821.5756124887
21292 1924803.1917777073
21293 1862151.2099054076
21294 1855452.246619857
21295 1618462.973795821
21296 1624106.1083690338
21297 1640114.4788101935
21298 2015044.1950809155
21299 2148119.6107917144
21300 2335317.7419671314
21301 2528456.958479797
21302 2782432.182092371
21303 3923736.5748902005
21304 4319648.959039431
21305 4115527.0244178763
21306 3749324.5095857526
21307 3357487.886379013
21308 3595031.238144054
21309 3722885.275287699
21310 2384006.7234960124
21311 2503132.600539698
21312 4800430.192823878
21313 5034577.905336101
21314 5464409.4998785015
21315 3812829.675079372
21316 3971448.9442047593
21317 4100743.7206927584
21318 3263928.614074352
21319 3317538.074470454
21320 3322409.8170595136
21321 3307558.0628823065
21322 3250706.2999291713
21323 3151322.8086986546
21324 3039398.063987857
21325 4679164.7938166
21326 4423472.368061492
21327 4195795.846439079
21328 4005977.2395340013
21329 3574583.579270424
21330 3490426.166591918
21331 3972076.357602137
21332 4059520.369673317
21333 4217824.568303077
21334 4416279.064242596
21335 6138786.7230993975
21336 6445135.285533007
21337 6770153.8333536815
21338 7492793.876904753
21339 8863194.900500124
21340 11252159.86454133
21341 11496215.748786762
21342 11654775.237766886
21343 11767692.967138046
21344 12598691.545842001
21345 11396514.572919218
21346 10727479.894890152
21347 11989172.59068541
21348 11566878.144559573
21349 11174742.390609078
21350 10767087.639072334
21351 10105590.643112533
21352 9746567.846423797
21353 9465490.123837644
21354 9205240.113147764
21355 7959164.239754481
21356 7681891.873561979
21357 7426044.4987455355
21358 7219106.170073625
21359 7010978.833157479
21360 6780296.0017639315
21361 6768941.519825283
21362 6947702.484883516
21363 6940117.253812135
21364 6948108.382014803
21365 6966355.278070047
21366 7721966.568300276
21367 7565510.317768788
21368 6256045.692139674
21369 6018582.533830951
21370 5725797.033250161
21371 5450625.003467695
21372 5090089.843335458
21373 4778969.0099733425
21374 4509159.6961705685
21375 4303092.456734288
21376 4178683.3386552753
21377 3807532.223222727
21378 3798465.169755142
21379 3353256.1412824024
21380 3460792.8627823335
21381 3656837.1637183377
21382 3883918.4021481783
21383 4017927.315634917
21384 4265280.235567726
21385 5571712.998312085
21386 5894654.471181896
21387 6442924.3848090265
21388 6737799.213822842
21389 7158188.154583809
21390 7312337.886961617
21391 7436717.271736529
21392 7506501.071238729
21393 7739065.686476199
21394 7762121.83228278
21395 7604807.698996409
21396 7686379.10339268
21397 7844155.9146346
21398 7781775.949645763
21399 7983236.854156945
21400 8198992.007093271
21401 8393329.704323115
21402 8554621.709514754
21403 8325002.833425205
21404 8499986.089245189
21405 8323910.150723277
21406 6643849.012024284
21407 6575871.847561836
21408 6199696.540166749
21409 5913063.119012345
21410 4658290.960495012
21411 4569557.966100185
21412 3903669.667184852
21413 3925975.3193794084
21414 4159238.020369973
21415 4196844.552685921
21416 4240643.258271061
21417 4305871.432251929
21418 4396198.63401224
21419 4487853.716643999
21420 4612395.1101128515
21421 4752455.835422897
21422 4906106.243252386
21423 5065125.873036268
21424 5219708.289506531
21425 5326248.556314197
21426 5431648.172245357
21427 5509564.716955325
21428 5568842.096531257
21429 5600600.870168585
21430 5591581.6391616715
21431 5513909.133569602
21432 5364307.291869347
21433 5148776.456991496
21434 4880936.686085275
21435 4586006.727947222
21436 4279402.111471945
21437 3979932.3936356674
21438 3736619.4494737573
21439 3576826.3763679834
21440 3507396.452061089
21441 3556356.1733097755
21442 3677570.9835828072
21443 3905049.206087062
21444 4181204.751288482
21445 5785612.103645629
21446 6221988.031033144
21447 6679977.426547971
21448 6852605.951838378
21449 7580506.329570274
21450 7563219.2148572905
21451 8724281.107827744
21452 8979808.466461033
21453 9169958.655276071
21454 9125790.489157151
21455 9444938.462066874
21456 10963892.632955693
21457 10737851.751687108
21458 10883749.247976808
21459 10574488.350435352
21460 11392519.853436723
21461 11021875.892948767
21462 10616247.021454552
21463 10281714.967400737
21464 8710662.129543398
21465 8444778.57503564
21466 8302252.943352758
21467 8352839.062623633
21468 8922942.639110774
21469 9506282.001050457
21470 9854970.940267641
21471 9605546.454198083
21472 10701767.927518317
21473 10942924.784660028
21474 11236240.781501489
21475 11072194.46663309
21476 11086650.383107886
21477 11989253.108623661
21478 12032588.701999523
21479 12069251.339321168
21480 12004131.338219307
21481 11424939.928943416
21482 11185884.400348699
21483 10704322.20310207
21484 10609987.856451461
21485 10282190.541966302
21486 9964787.360932361
21487 9698198.921069292
21488 9509692.651321137
21489 9229395.47912217
21490 9064905.7697136
21491 8870372.059212275
21492 9285241.407867031
21493 8979782.201441893
21494 8626609.400540939
21495 8370469.394122604
21496 8178246.446924234
21497 8127278.423996851
21498 8222429.756164927
21499 8484054.10335644
21500 8688120.662609087
21501 9219936.697318593
21502 9645731.908077382
21503 10088868.363748662
21504 10544549.56005285
21505 11149098.113048267
21506 11750661.373339437
21507 12079452.90414015
21508 12185269.032086594
21509 12311390.809678745
21510 12460928.888673024
21511 12589010.226407045
21512 12370212.94398239
21513 12282892.707383255
21514 12105258.92363755
21515 9919243.341283638
21516 9703695.371977948
21517 9160938.32868135
21518 8639231.317707706
21519 8480062.33568772
21520 8769130.772322774
21521 8965895.144326981
21522 9627929.83854271
21523 10518802.909294004
21524 11517686.841234459
21525 12833729.255629618
21526 13665418.674332457
21527 13160767.131397577
21528 13782334.499652883
21529 14358413.439237634
21530 13670092.52650131
21531 14250035.447258653
21532 14790095.559585534
21533 15224974.629098956
21534 15544289.975963036
21535 15740440.559861567
21536 15736859.176067045
21537 15501475.903302839
21538 11873062.353004264
21539 11394858.015892398
21540 10651354.511626134
21541 9933892.108221613
21542 9174369.272484353
21543 8531875.684749426
21544 7996808.723263532
21545 8351499.208096902
21546 8006098.6563279675
21547 9410912.797207776
21548 9331062.705626354
21549 9503813.509779038
21550 9929071.856927255
21551 10654388.300650908
21552 12628710.978810174
21553 13619039.720137928
21554 14564713.262472857
21555 15566908.722714398
21556 16497434.720597968
21557 17217321.03818923
21558 14936779.559873123
21559 15119819.841722187
21560 18309377.13625757
21561 16052601.407381065
21562 15359776.402788788
21563 14656608.437049927
21564 13951363.16143749
21565 13398840.808254665
21566 13050552.204718778
21567 12738654.108873172
21568 12279448.79571592
21569 13729369.313056497
21570 13812514.451319568
21571 13584954.827440904
21572 13267102.505402338
21573 12966725.245124424
21574 12545157.780616505
21575 11974553.89085861
21576 11378754.399525844
21577 8453322.21988804
21578 7448739.575237197
21579 6780700.181081964
21580 6159461.850169924
21581 5600702.175181859
21582 4786933.058505424
21583 5524618.991473334
21584 5228811.220816305
21585 5071080.109086037
21586 5217566.1203975
21587 5171325.521905019
21588 5304693.844086055
21589 5466017.416021051
21590 5847365.937615386
21591 5716799.915241465
21592 5581556.41859909
21593 4506665.747131764
21594 4358975.141189325
21595 4186526.7063747714
21596 4009382.9071086724
21597 3804564.6549662775
21598 3619870.7412541346
21599 3570182.157030703
21600 3426659.2693136763
21601 2734595.5954567054
21602 2611073.300906646
21603 2495494.2742407043
21604 2387990.127114162
21605 2211117.3780043977
21606 2129864.236583498
21607 2075376.364564788
21608 2113375.533489813
21609 2114724.981663545
21610 2146281.52750171
21611 2211630.47364623
21612 2280451.33072833
21613 2838074.8556984714
21614 3079929.1437918893
21615 3207969.4046641476
21616 3410793.469708322
21617 3596544.3052657996
21618 4590258.568694222
21619 4698280.3025956815
21620 4777738.88666798
21621 4879024.400707101
21622 4680920.180880777
21623 4573007.570973542
21624 4601744.03624235
21625 4481405.380646781
21626 3963698.545686634
21627 4945471.490356514
21628 4968380.9767482085
21629 4624236.419799586
21630 3794934.1688961512
21631 3783959.769171953
21632 3776371.940899582
21633 3867301.0141277593
21634 4589679.68741031
21635 4906027.802613067
21636 4969941.365569793
21637 5038338.101923144
21638 5168862.940383612
21639 5383467.959369612
21640 4358958.7381097665
21641 4817732.637289331
21642 6912848.839694005
21643 7508352.884200848
21644 8129316.162110409
21645 8674116.89155149
21646 9213804.802371163
21647 9617094.186336769
21648 10067609.896297198
21649 10480897.447791658
21650 10897123.76512426
21651 12035037.236935075
21652 12491046.945959797
21653 12969566.21429833
21654 13514699.193027537
21655 14045439.355431512
21656 14728809.643329632
21657 12394256.749671657
21658 12602796.148575803
21659 12574087.57166294
21660 12425428.693335833
21661 12110294.299130864
21662 10899241.234027207
21663 10371633.329439534
21664 9740841.683178408
21665 9086708.109275933
21666 8423178.184403442
21667 5240380.626442648
21668 4870112.020594536
21669 4644103.225233807
21670 4506641.696458741
21671 4459359.058436778
21672 4491874.722764969
21673 4605278.901942045
21674 4810345.740921103
21675 7522820.582091761
21676 8003251.520393871
21677 8741211.105757667
21678 10131932.616603207
21679 9391333.28512615
21680 12825238.565406773
21681 15891161.30359819
21682 16431731.388940766
21683 16921198.628694493
21684 19026594.142678134
21685 20217447.69011529
21686 20898558.151351936
21687 21518916.23280508
21688 21958008.779808335
21689 22158071.52639086
21690 22071023.102701467
21691 21656705.085992586
21692 20962243.19407014
21693 20053660.166517723
21694 18960644.037267465
21695 14906859.586809563
21696 12532075.337463968
21697 12268394.771673245
21698 11481436.138651835
21699 9002982.744905971
21700 8538206.48250046
21701 7904017.133002123
21702 8686794.018647598
21703 7637862.999558375
21704 6777023.8231624905
21705 5805547.173751481
21706 5182171.017557944
21707 4671920.014482639
21708 4314053.317145505
21709 4113967.78140337
21710 4075812.7005574447
21711 4198949.069945344
21712 4418719.305281426
21713 4827278.329242938
21714 5108168.37695354
21715 6502768.549157678
21716 6983992.96550273
21717 7285586.733805688
21718 7447143.172474814
21719 7360861.860458581
21720 7313114.372745687
21721 7139010.733930094
21722 6000785.46749496
21723 6120769.848020342
21724 6033067.639248856
21725 6006263.946162394
21726 6124606.024653379
21727 6405615.108691291
21728 6901742.001756308
21729 8523747.485886244
21730 8925797.912988815
21731 9776563.657734971
21732 11250286.061427547
21733 12019577.05872803
21734 12632502.230767744
21735 11466166.59291345
21736 11640461.864491714
21737 11665177.597911514
21738 11818492.040242169
21739 10979610.21059237
21740 10646364.782194586
21741 10562222.528090307
21742 10503330.035385517
21743 10646638.150040222
21744 10619814.222785776
21745 10819362.845772818
21746 11516760.25447438
21747 11611708.589126624
21748 12208322.46473905
21749 11412439.567808388
21750 10318896.019374723
21751 10009474.083913065
21752 9644131.613599561
21753 9303966.886246981
21754 8854641.98765339
21755 8605332.267123425
21756 7033803.068674071
21757 6907959.763462039
21758 6838604.722045165
21759 6885343.816748702
21760 7018057.173689665
21761 7208343.10065911
21762 7456070.261357431
21763 7740736.931683687
21764 8060232.891929885
21765 9042909.5901811
21766 9341587.180175597
21767 9661525.301639851
21768 9881800.650441924
21769 10059356.383722413
21770 10205337.619175594
21771 10306818.31848298
21772 10383052.01200303
21773 10534579.40415681
21774 10747496.77994578
21775 10554307.816837851
21776 12264023.585689276
21777 10236315.103585407
21778 10173398.734171454
21779 10086697.842040448
21780 10198985.384389741
21781 10144364.057129197
21782 10156648.888767663
21783 12196108.537305625
21784 12222516.85465721
21785 12335995.408267723
21786 13377555.709392702
21787 13398207.04284872
21788 13492243.412605481
21789 13785318.91385096
21790 14301714.77643693
21791 11449549.97279261
21792 11877335.906946598
21793 11917635.950547088
21794 12185347.70419007
21795 12405289.930854913
21796 12548261.78874498
21797 10948191.274184383
21798 10901955.661343312
21799 11425618.611409554
21800 11263158.742543735
21801 8575897.81167633
21802 7281709.577079571
21803 7179087.449450106
21804 7105566.206258949
21805 9618138.299747625
21806 9380448.40023874
21807 9087627.990810553
21808 8721503.626549715
21809 8299185.9731782945
21810 5399293.744294275
21811 5059279.467614184
21812 4729931.233536207
21813 4448307.617010619
21814 4145059.531313777
21815 5595063.1446229
21816 5272685.401345628
21817 4983995.174658726
21818 4741949.9460137235
21819 5797837.714109435
21820 5584895.240290239
21821 5446978.542116708
21822 5370938.447483917
21823 5365113.090080234
21824 5413920.343405569
21825 5521096.3503618445
21826 5647911.0219979305
21827 5865950.084432146
21828 6145848.8814263875
21829 6478349.842234158
21830 6935167.581130813
21831 7355244.962223472
21832 7781185.996686906
21833 8172384.526626358
21834 8535128.574955879
21835 9842179.202043798
21836 10047806.193618724
21837 10208940.03760537
21838 10277081.44513203
21839 10229159.38269725
21840 10113020.59600679
21841 9934459.005573068
21842 9408931.176223172
21843 9197312.193235908
21844 9030175.48067038
21845 8929589.045857418
21846 8927771.147542626
21847 8555428.691826493
21848 8600318.020786135
21849 7598955.235900384
21850 7529927.807878554
21851 8854762.871639771
21852 8193519.651112544
21853 7874720.200729378
21854 6503465.152266336
21855 6470139.611488271
21856 6740208.874161358
21857 9378621.457034547
21858 9053068.79821717
21859 9588013.81415692
21860 10121737.278210388
21861 10629228.348156104
21862 11007555.46123948
21863 10890637.0791427
21864 11266064.906193884
21865 11582316.304668672
21866 12047778.051576475
21867 12447595.439996509
21868 12621788.113600362
21869 12555457.651111342
21870 12381521.388457267
21871 12255140.901981207
21872 12143683.198919952
21873 12012885.121293807
21874 13116903.63710929
21875 13164961.780996766
21876 13288423.734398419
21877 13466378.913664225
21878 12392325.597595867
21879 12354599.531690817
21880 12250426.95399469
21881 12070961.67796824
21882 11839307.15072934
21883 11567811.785267731
21884 13083609.327427879
21885 12610380.55873277
21886 12585979.709154544
21887 12078139.718317999
21888 11438717.152883654
21889 11113802.171343373
21890 10906500.553847425
21891 10820325.900143454
21892 10627419.130541185
21893 9603551.897418475
21894 9382368.664244581
21895 9184923.60091369
21896 8990759.183889484
21897 8724953.217863183
21898 8700048.227889374
21899 8838431.303547962
21900 8934421.873502823
21901 8953027.389523877
21902 9050347.680708414
21903 9125213.97864966
21904 9190586.05841592
21905 9264622.280984277
21906 9366798.917906845
21907 9391640.712489037
21908 9033889.884684509
21909 9326260.500765337
21910 9404536.434941737
21911 8953785.719545688
21912 9021573.165395858
21913 7690374.105253717
21914 6352278.666089236
21915 6342824.942310917
21916 6368572.920894722
21917 6447912.477519717
21918 6323544.625019526
21919 6478003.807630196
21920 6646902.536226914
21921 6770713.379459233
21922 7121135.56382271
21923 7061485.299061851
21924 6913939.925973488
21925 6642321.659778068
21926 6294289.383376831
21927 6633877.48534283
21928 6259789.386932033
21929 5975340.795616632
21930 5788420.211301889
21931 5662316.66001257
21932 5592142.679390439
21933 5570379.076241945
21934 5630305.8853970915
21935 5742212.741814434
21936 5941567.390459239
21937 6208845.118514342
21938 7432801.695179651
21939 8942664.199806325
21940 10696334.053207528
21941 11114536.559552524
21942 11245236.830114204
21943 11541072.540527364
21944 12326166.915463097
21945 12203348.225703035
21946 12254149.920823202
21947 11431470.053547183
21948 11204970.480167337
21949 10912310.6918737
21950 10578842.26757388
21951 10210207.899832897
21952 9857626.86561464
21953 9713685.74117973
21954 9742442.294546776
21955 9974643.786084328
21956 10380398.483739944
21957 10806077.237228042
21958 11261687.118152317
21959 12426275.639826842
21960 12855599.20295797
21961 13011918.380713008
21962 10446083.346016817
21963 10411363.088951346
21964 10133491.662652237
21965 9788246.538093898
21966 9470950.751820862
21967 9169251.539207792
21968 8848659.161957564
21969 7850861.0030566305
21970 7891630.369108869
21971 7716511.467744036
21972 9163052.590704026
21973 9216063.198428327
21974 9494212.479204267
21975 9987426.210737599
21976 11295095.516434744
21977 11904285.62716808
21978 12412312.811115865
21979 12879105.417644648
21980 13214447.070949966
21981 14978442.195346683
21982 15026586.00091516
21983 15071019.58981107
21984 15062720.717981787
21985 15086293.132640988
21986 15167404.037422135
21987 15558861.28377602
21988 16059820.827957608
21989 16596490.21657001
21990 17014736.51887874
21991 17360283.54782396
21992 17669470.776653744
21993 17852994.415095035
21994 18051967.955857538
21995 18116273.5150192
21996 18155343.72159645
21997 18119364.883646917
21998 16279306.596511489
21999 16054992.982828392
22000 15905588.972016653
22001 15579605.308059605
22002 15300182.367408903
22003 15492769.847116575
22004 15296335.989485044
22005 15115680.426542915
22006 14928862.499139627
22007 13187490.77279374
22008 13031540.423795724
22009 12912642.960770085
22010 12895704.175766448
22011 13939816.460353585
22012 11781994.098322084
22013 11803318.29124375
22014 11858499.908995466
22015 13561387.733679626
22016 13558784.381174494
22017 13822596.213347116
22018 13396235.28472728
22019 12109810.21090638
22020 11923167.665352667
22021 11675483.947774617
22022 11336430.714262534
22023 11040488.196983535
22024 10627499.48801606
22025 10218731.144160016
22026 9807268.327628829
22027 9439517.80445639
22028 9091017.084734447
22029 8738250.274261111
22030 8398350.59847955
22031 8126921.111602766
22032 7847701.810318016
22033 7532910.158721873
22034 7264102.985213148
22035 7057079.269464994
22036 6931003.390851146
22037 6781239.462802468
22038 6698047.816431249
22039 6559744.157448207
22040 6225388.758218195
22041 6058653.738039406
22042 5918882.832440228
22043 5793176.626017278
22044 5710992.630109068
22045 5750552.894825807
22046 4738446.050696296
22047 5541924.165069808
22048 5377955.671962373
22049 5237428.803657855
22050 5121795.1518062735
22051 5024052.6188839255
22052 4955455.410782006
22053 4914185.561861308
22054 4883676.634933866
22055 4982001.549914221
22056 5833169.7826818675
22057 6522509.142126271
22058 6869056.553941924
22059 7219157.527799523
22060 7568563.411084447
22061 8002222.077592734
22062 8057909.949113803
22063 8208808.905174781
22064 8290894.60886161
22065 8145870.684469841
22066 7513394.666425121
22067 7467125.8788904045
22068 7243166.270300067
22069 7055564.138611169
22070 6868220.0219732495
22071 5981460.974010038
22072 5771760.063611371
22073 5691377.201037731
22074 4723537.302995397
22075 4674732.108304534
22076 3824223.304178982
22077 4705762.530315505
22078 5037809.773955062
22079 5136560.388798827
22080 5229493.987830122
22081 5339933.771239849
22082 5504722.3518369
22083 6774854.454272778
22084 6889348.818240993
22085 7384351.394625489
22086 7516129.572990247
22087 7658359.624803002
22088 7817929.292152376
22089 7959795.780539367
22090 8608157.197882043
22091 8517168.946239525
22092 8344196.915628243
22093 8254955.752821218
22094 7883482.392412217
22095 7617281.044897025
22096 7388984.160639896
22097 7295414.665851983
22098 7201968.194338713
22099 7229568.583787124
22100 7673263.208916466
22101 7868606.550734402
22102 8211307.497486815
22103 8671012.595385356
22104 8952904.492801791
22105 9343297.435761902
22106 9802776.036160344
22107 10121417.278933775
22108 10540688.468027985
22109 10924964.508569492
22110 11636240.928570332
22111 11887999.300743498
22112 11973540.42275879
22113 12018560.681566224
22114 11596421.120756973
22115 11235747.055365568
22116 11632874.171414502
22117 10763885.157959588
22118 10155464.46756215
22119 9597611.626341345
22120 9063495.740553487
22121 7713543.924845474
22122 7338925.01461767
22123 7143719.567229289
22124 7101863.188698097
22125 7467745.305900477
22126 6463034.629675232
22127 6696118.076444505
22128 8020327.524666076
22129 9841616.436550766
22130 10394236.087838683
22131 11083074.193266548
22132 11776234.695477825
22133 12401999.306117734
22134 12215747.384861445
22135 12538134.568472285
22136 13511348.113485526
22137 13739641.474612096
22138 14055599.655181011
22139 12800120.037558515
22140 12892175.538810832
22141 12875747.496024603
22142 7431994.092798917
22143 7200118.232223686
22144 6945483.436244605
22145 6667171.237944928
22146 6430305.0231130095
22147 6217023.9038752895
22148 6087798.464072614
22149 6072454.576166885
22150 6150513.463198544
22151 6333252.3463268755
22152 6575690.895147911
22153 7892050.430093733
22154 8185244.091122164
22155 8424281.734471412
22156 8544023.342671746
22157 8527259.250913503
22158 8344400.8245412465
22159 8031890.720189307
22160 7287606.380550111
22161 6795291.449754391
22162 6320099.791387354
22163 5911261.364524493
22164 5574523.5005291235
22165 5324457.288810854
22166 6432612.203510358
22167 6283468.469990781
22168 6247954.881823851
22169 7306945.612056613
22170 7317918.241548643
22171 7384572.161324908
22172 7453881.169185532
22173 7511062.139645964
22174 7522569.418946422
22175 7485688.782526163
22176 7391310.498984108
22177 7277711.377358524
22178 7156525.411745916
22179 7087647.559541699
22180 7057212.300596385
22181 7715745.959658447
22182 7931157.696421335
22183 8010046.022721448
22184 8269610.072819482
22185 8643210.016644917
22186 9129935.835534614
22187 9537561.806402564
22188 9935283.781731362
22189 11434289.697340688
22190 11698681.185560353
22191 11909004.80291725
22192 12089139.46465845
22193 12150076.077221725
22194 12113884.594317798
22195 11985669.683143593
22196 11856893.301066997
22197 11617536.733663144
22198 11348748.49387616
22199 11278141.251084697
22200 10867490.324718932
22201 10399725.259626733
22202 9983061.387526775
22203 9559746.476650339
22204 8197053.659192198
22205 7814689.582535421
22206 7434116.7837403575
22207 6920453.773329682
22208 6003247.416387182
22209 5530211.91870113
22210 5313728.967751612
22211 5192378.148949816
22212 5149128.2346515525
22213 5177036.0433018105
22214 5230436.942112761
22215 5314028.384380956
22216 5395523.50639433
22217 5515789.695780855
22218 6363728.0427964255
22219 6413969.979382637
22220 6533845.0186213
22221 6710618.596491317
22222 6962014.723444317
22223 7254929.502201754
22224 7762799.282246167
22225 7832279.497711682
22226 7918495.6746215075
22227 7958743.221450944
22228 7946992.520246582
22229 7907794.0384702375
22230 7826997.675406879
22231 7856830.616369279
22232 7911077.021971352
22233 7904675.742236476
22234 7859143.780292048
22235 8467248.25590102
22236 8415190.837256156
22237 8304107.497323387
22238 8339152.077604549
22239 8505027.935512269
22240 8498885.470889956
22241 8641823.498514192
22242 8809817.331839787
22243 9035029.538421758
22244 9208940.751680307
22245 9291422.935377674
22246 9426197.930241868
22247 9757687.979078744
22248 10119327.091625886
22249 10636028.886737593
22250 11052749.19530171
22251 10581093.094103979
22252 9582012.94145454
22253 9576901.219378756
22254 9566467.492898555
22255 9367947.082174296
22256 9599626.913973115
22257 9867901.935318226
22258 10323785.064097118
22259 10892127.404265475
22260 11503234.041808398
22261 14296317.086334245
22262 14967878.550267447
22263 15582956.791826164
22264 15869199.56271676
22265 16294394.935195334
22266 16616916.603145482
22267 16864987.942125306
22268 16836447.195915546
22269 16776945.919366617
22270 16613840.252458628
22271 16324373.202352615
22272 14100124.118133616
22273 13498580.078048483
22274 12872996.983989198
22275 12187819.502176536
22276 6867002.968813122
22277 5330609.569859187
22278 4948308.601813039
22279 4636049.7645611605
22280 3149449.7625379283
22281 3038200.2973291273
22282 2320446.3853729144
22283 2310561.975658002
22284 2338428.900498845
22285 2388768.666421158
22286 2470004.837669588
22287 2544980.1665807855
22288 2622439.492705796
22289 2693032.6912688822
22290 2754254.594260731
22291 1765075.4304946007
22292 1774468.23744989
22293 1779698.0387620758
22294 1782041.2867191907
22295 1768158.5225793354
22296 1752770.2571952161
22297 1727119.4076545618
22298 1676308.5323766281
22299 2786700.7764634877
22300 2670328.8624490118
22301 2555945.1730856053
22302 2452465.525297711
22303 2382668.3653812753
22304 3654037.4184930264
22305 3594946.8013193374
22306 3605039.075221689
22307 3673342.5737562045
22308 4213822.981534417
22309 4333000.543501477
22310 4508932.701374031
22311 5755739.955746009
22312 7296590.488993438
22313 9206461.819871992
22314 9515468.283628387
22315 10004169.058941327
22316 10480072.132910725
22317 11053442.571168585
22318 11602974.172636773
22319 12121750.078012096
22320 12359517.027315453
22321 13286023.514995208
22322 13108786.766428785
22323 12980492.329453649
22324 12540458.082974855
22325 12380399.371210476
22326 12775561.002101742
22327 12433163.776156643
22328 12039930.041725377
22329 11574448.880843382
22330 11137009.830008602
22331 10740474.626989942
22332 10373670.244032208
22333 10113099.978816776
22334 10036971.314435387
22335 10024326.189374495
22336 8865129.932522023
22337 9018939.53899887
22338 9214222.579144454
22339 10542018.982229182
22340 10697361.321012791
22341 10767311.824470615
22342 10819378.776717404
22343 10856759.382110476
22344 10820615.454139162
22345 10749812.644759996
22346 11077316.7757286
22347 10821382.338490624
22348 10556920.185297307
22349 10259880.80616038
22350 9970432.390167775
22351 8707186.156406533
22352 8627471.748216242
22353 8472215.04329782
22354 8488297.176703317
22355 8711743.84220577
22356 8919578.92806617
22357 9287100.359359942
22358 9901056.86139212
22359 10271289.86549735
22360 10591564.047415502
22361 10818525.262231203
22362 10936781.471248271
22363 10682960.405297
22364 10510295.225178888
22365 10213033.964106277
22366 9871044.634535974
22367 9676427.328158867
22368 9407420.448576925
22369 9252904.467812033
22370 9179149.06411397
22371 9210714.000116862
22372 9302725.766301343
22373 9387098.40668287
22374 9527656.746482687
22375 9596814.133689657
22376 9592111.096270762
22377 9521956.790754484
22378 10518606.614137558
22379 10288277.17154164
22380 10026204.7995311
22381 9819806.338381037
22382 8598326.01940891
22383 8506683.413573006
22384 7496201.685358377
22385 7459182.378632049
22386 7420721.364143643
22387 6328734.750623799
22388 6207895.371266758
22389 6920270.447787285
22390 5285869.231888876
22391 5018747.003458009
22392 4728561.478918815
22393 4442549.688699353
22394 4199686.955045662
22395 4011701.0531664225
22396 3899095.2606924684
22397 3859598.2354484056
22398 3525565.6009966717
22399 3521572.851157923
22400 2940995.7328648684
22401 2931696.046967452
22402 2938277.2571099605
22403 2971987.8396137403
22404 3045524.1379478765
22405 3164969.88239057
22406 3316628.8120480324
22407 2950162.257467057
22408 3441478.315475981
22409 3544441.1766961026
22410 3670605.6001307284
22411 5346564.744713682
22412 5562377.857084154
22413 6281701.764071354
22414 6628962.344642049
22415 7883657.975840917
22416 8332002.973813256
22417 8795072.194783239
22418 9357885.546400264
22419 9978618.38900657
22420 10659204.643956177
22421 11353695.523385014
22422 12076329.582758998
22423 12172145.177982742
22424 14525341.144353459
22425 14886179.504728312
22426 15095795.163143216
22427 13515318.448392784
22428 13602527.482506767
22429 13641860.294328272
22430 13733393.869805226
22431 13774437.18755519
22432 11606712.331042185
22433 11286399.249635978
22434 5152254.749006982
22435 4808461.61261829
22436 4467773.663771894
22437 4145722.549508164
22438 2266410.0844845898
22439 2091821.11931288
22440 1957467.8435998943
22441 1855182.8990352184
22442 1751018.7655867187
22443 1676444.2519558882
22444 1619799.0387155318
22445 1594064.0518151647
22446 1579177.2975702186
22447 1590983.0061549451
22448 1627398.8909366284
22449 1671454.4146899981
22450 1733473.2421600234
22451 1819110.5394341734
22452 1914370.6268041823
22453 2015705.7751827869
22454 2153670.6943426905
22455 2849757.685128807
22456 4552305.156486206
22457 4871993.183061475
22458 7235718.498192734
22459 7676507.435981877
22460 8121049.09200292
22461 9676892.96429336
22462 11477386.415536596
22463 13456959.844765076
22464 13118188.716169093
22465 13111912.754672226
22466 12912361.480992857
22467 12581836.295757482
22468 10227555.406056466
22469 9833232.387573024
22470 8935114.157852218
22471 8155779.985007197
22472 7798554.505797216
22473 7521847.2042200435
22474 7327896.136251637
22475 7092755.3883055085
22476 6854673.895711114
22477 7045862.492162503
22478 6719507.9183075465
22479 6352092.721737214
22480 6033166.674182158
22481 5820429.029794916
22482 5667661.492069364
22483 5594182.752795528
22484 6560047.772873227
22485 6621458.541648201
22486 6789319.201976991
22487 7002033.647946983
22488 7287100.36040179
22489 6709602.107899584
22490 6776690.169376959
22491 6812098.681157995
22492 6880921.549912539
22493 6971178.362247929
22494 7100205.9907833645
22495 9080021.749322753
22496 9116907.792593982
22497 9109650.017888267
22498 9118301.291200766
22499 9076108.662269024
22500 8997895.613975612
22501 8847549.29955041
22502 8646586.588616187
22503 7315824.6666297885
22504 7069627.312415543
22505 6857370.8269005595
22506 6649959.460805546
22507 6450059.423104172
22508 6272139.205472499
22509 6138636.822913101
22510 6011617.717440194
22511 5893090.829975884
22512 5777789.739994604
22513 5666729.401624342
22514 5516928.875230525
22515 5370763.342840195
22516 5211405.199416466
22517 5038066.743318143
22518 4877113.802663218
22519 4746109.870135299
22520 4646327.079966523
22521 4635742.543917819
22522 4704927.500025705
22523 4817246.088881755
22524 5847498.144392268
22525 6286466.517228965
22526 6817145.6161236325
22527 7412732.39463613
22528 9023752.778667273
22529 9671993.477216715
22530 10086628.964684002
22531 10450099.805943955
22532 10531536.661020335
22533 10496822.09839864
22534 10333679.935687643
22535 10120562.89556455
22536 9829601.668762693
22537 9571424.287710328
22538 8279239.604440597
22539 8112644.384088779
22540 8020907.29460683
22541 8067934.765194652
22542 8373853.574774249
22543 8567033.882710157
22544 8812485.860027283
22545 10012531.410903083
22546 10309326.64423918
22547 8625909.303995302
22548 8235976.945134197
22549 8426910.696058115
22550 8662388.297722854
22551 11074392.965829566
22552 10924495.132259421
22553 10120413.06466377
22554 8600307.60421029
22555 8308790.289332072
22556 6351943.440241838
22557 6060668.383848946
22558 5779092.390312456
22559 3867181.0763312234
22560 3667577.995776864
22561 3495155.718923085
22562 3382035.8372985567
22563 3311269.4208817356
22564 4332151.719084333
22565 4307876.344278612
22566 5591593.219228555
22567 5581657.065604089
22568 5741781.080592706
22569 5730397.893373037
22570 5748145.069173125
22571 6885743.494477031
22572 6993044.823182066
22573 8175011.412343647
22574 8281601.296976592
22575 7199849.355087459
22576 7229914.3238408705
22577 7215698.556186712
22578 7200330.224715794
22579 7182356.265935001
22580 7207300.88146233
22581 6467300.170906466
22582 6509613.715160375
22583 6610761.069745649
22584 6778625.6960276775
22585 6949532.83837857
22586 7120499.162097481
22587 7967332.371735371
22588 8436960.273628455
22589 8461777.632894738
22590 8665183.805512125
22591 8631891.999570735
22592 9862554.816785555
22593 10040133.135172859
22594 10301990.054088179
22595 10580626.09431049
22596 10962587.728307415
22597 11071341.548017476
22598 11123870.2093391
22599 11489186.929403648
22600 11879460.425529292
22601 11103085.994125903
22602 11363901.645367669
22603 10026383.096045945
22604 9265829.2440368
22605 9060686.79954825
22606 8770399.613603087
22607 6932644.665404739
22608 6771835.852416407
22609 4703702.213240225
22610 4440721.0759766735
22611 3182426.677711254
22612 2250074.243329016
22613 2200830.4919985505
22614 2209280.0229406236
22615 2254872.895701609
22616 2327591.682308801
22617 2408700.5064472617
22618 2492964.1065629157
22619 2603974.617511939
22620 2725628.331605773
22621 2850658.7996468847
22622 3019670.6317749247
22623 3189853.462065289
22624 5459698.62037014
22625 7788722.332985135
22626 7969216.443008289
22627 9162384.06075557
22628 9139243.874920335
22629 9085346.66927934
22630 9016840.20183414
22631 8937081.036424795
22632 9524682.151630653
22633 9479530.709153589
22634 8408403.738972336
22635 8452726.3494627
22636 8479274.13485703
22637 8582359.542489761
22638 10260905.561868172
22639 10452174.312308395
22640 11721582.294128725
22641 11881800.76878088
22642 12009532.563368948
22643 11237883.771472618
22644 11086193.464131903
22645 12391215.031093901
22646 12059432.594120093
22647 11313790.979125628
22648 10587217.880462067
22649 9708475.743690113
22650 8922481.510815294
22651 8224224.656621725
22652 7701739.135286498
22653 7172079.75373145
22654 7292972.441985186
22655 7022349.549658182
22656 6871315.686988583
22657 6803591.653892333
22658 6870001.464243039
22659 7063980.202168985
22660 7293618.757587148
22661 8455611.53097931
22662 8576115.378527826
22663 8687288.061289836
22664 8776060.463836757
22665 8792278.592523871
22666 8766657.019650137
22667 8870278.008111546
22668 9078505.74870583
22669 9640148.229650645
22670 8865958.524291076
22671 8796927.136617415
22672 8730083.802245643
22673 8706777.644266857
22674 8727101.612005744
22675 8791728.95135721
22676 8864985.088791117
22677 8926337.350294204
22678 8927652.424626607
22679 8746498.166474035
22680 8598271.406871537
22681 8215874.203987624
22682 7874452.373367566
22683 7541380.310228314
22684 7281391.8750976445
22685 6786370.032979071
22686 6460269.570996101
22687 6543035.627270146
22688 6695361.285654344
22689 8436640.970600694
22690 8775876.725288613
22691 9310574.629203822
22692 9960364.143073
22693 10953882.511635855
22694 11670766.385169461
22695 13060790.634176966
22696 13491400.902067693
22697 13740743.60396111
22698 13884760.478337104
22699 13923273.376449537
22700 13875577.822785944
22701 13782174.943402482
22702 13009638.405282058
22703 13729418.381082071
22704 12627665.865955802
22705 12742926.240869265
22706 14176871.335682757
22707 14493930.537319964
22708 14846810.125240894
22709 15276912.37626654
22710 15553357.802776625
22711 15837297.49394079
22712 15755420.818258306
22713 15914326.435764618
22714 15485557.540122047
22715 14024253.35826607
22716 13482892.433472106
22717 13599804.537198592
22718 13810735.378791144
22719 14443645.225114098
22720 13586109.420002311
22721 13456164.523212146
22722 11822226.769697823
22723 11518932.248643585
22724 9676576.624544179
22725 9408354.368781563
22726 9255028.03425986
22727 7496037.613838475
22728 7332072.5003259
22729 7177027.3816721
22730 5933335.72625327
22731 5835659.001489859
22732 5774893.325360563
22733 5718320.401499441
22734 5684059.262992796
22735 6849085.453495553
22736 6805377.857461166
22737 6801045.302124487
22738 6826144.023402192
22739 7195676.749261417
22740 7194779.861950099
22741 8502182.488400105
22742 9407038.733851882
22743 9229336.067483846
22744 10121826.599014642
22745 9854342.720226364
22746 9503975.721863633
22747 9128274.367162947
22748 8770097.88826952
22749 8476702.756856702
22750 8157214.166786189
22751 7444883.167672081
22752 7107404.81056359
22753 7273796.091429002
22754 6829792.201089993
22755 6460874.944989247
22756 6127689.51887911
22757 5140501.666083892
22758 4979813.46934102
22759 4907053.680790614
22760 4834139.18601663
22761 4951194.042261468
22762 5206638.851650177
22763 6233660.017905625
22764 6281579.876867337
22765 6484823.071091317
22766 6560562.734641374
22767 6669628.480808073
22768 6095976.867626148
22769 6127750.675741134
22770 5900672.246190597
22771 5935070.067456852
22772 5989062.691227755
22773 6096869.230887581
22774 6251072.156220397
22775 6485341.7174974
22776 7456008.31368718
22777 7838014.37057284
22778 7968133.108732309
22779 7232568.204683837
22780 7031097.456029945
22781 6969970.856961598
22782 6751345.550617639
22783 6505885.172048894
22784 6168157.577920305
22785 5846854.998809031
22786 5650523.657610015
22787 4543349.635496434
22788 4172900.4652065146
22789 4002280.5695995125
22790 3709295.841077737
22791 2852781.466696109
22792 2857590.493664301
22793 2887309.6782957455
22794 2157959.2691819724
22795 2179754.8709225105
22796 2211246.182570316
22797 2265975.6119408286
22798 2336838.8583325846
22799 2408410.638304789
22800 2469598.9563371297
22801 2526886.963457565
22802 2603978.0451167556
22803 2667416.5896728607
22804 2728249.5385216344
22805 2776094.4747736473
22806 2810984.0360835814
22807 2820192.2923588166
22808 2804718.5453514284
22809 2758764.894701798
22810 2713341.613535917
22811 2648938.550695422
22812 2589156.1505124364
22813 2554864.367184996
22814 2528231.333432293
22815 2543730.0722128567
22816 2577284.721732615
22817 2655971.994932947
22818 2773634.590341089
22819 2933695.4343043515
22820 3124283.757474518
22821 3348646.682432325
22822 3577864.458724695
22823 5731526.653801595
22824 5943299.934571197
22825 6125782.494494072
22826 5676214.602213121
22827 6867599.308424928
22828 6755614.228480818
22829 6678128.900597116
22830 6627727.209975794
22831 6640981.249371079
22832 6713574.319306906
22833 7898021.681999114
22834 7951574.941245297
22835 8036977.533832031
22836 8067119.844504217
22837 8058323.498833628
22838 8043349.693328562
22839 8827881.481286187
22840 8834832.654236414
22841 7791569.663327361
22842 7736473.925638926
22843 7801979.32151642
22844 8650732.329767935
22845 8730619.8628603
22846 8969415.76257822
22847 9091998.977211034
22848 8414854.116002383
22849 9546563.688574644
22850 9623695.993862182
22851 10663025.862914693
22852 10689641.530993678
22853 10769825.29270816
22854 10868380.362566246
22855 10952698.322156314
22856 11272136.23913712
22857 11261920.910901263
22858 11325972.344057946
22859 12288783.187778618
22860 12283747.81307535
22861 12228932.15813009
22862 12108668.576047074
22863 12588284.051078012
22864 11250504.181947598
22865 10794332.954299387
22866 10305232.801786985
22867 9834547.687934844
22868 8559601.040118232
22869 8266722.388184005
22870 8028870.959465785
22871 8275915.271948833
22872 8222700.622096597
22873 8215523.646142451
22874 8309051.352703947
22875 8416528.93713618
22876 8602681.085257513
22877 9204322.447907172
22878 9462199.26492437
22879 9251327.985059353
22880 9593079.836070228
22881 10753497.91472355
22882 10994717.833555022
22883 11229311.674524747
22884 11250819.2150732
22885 11246634.055078033
22886 11173409.238003084
22887 10742443.316995973
22888 10530273.218873244
22889 10259009.74682206
22890 8913982.810040906
22891 8822373.067280836
22892 7984855.498737421
22893 8066401.0597742945
22894 8212457.189223993
22895 8999768.374547139
22896 9060515.662791833
22897 9134583.452783367
22898 9145351.590603044
22899 8656527.427195562
22900 8539908.992820198
22901 7672561.936030606
22902 6900170.418097847
22903 6743023.493049005
22904 5589072.191751517
22905 5492793.784783365
22906 5121009.544553142
22907 6217149.571355292
22908 6085199.9188096505
22909 5927779.878472165
22910 5025354.973613391
22911 5161936.813319631
22912 5298069.287926767
22913 5459048.960343215
22914 5633469.515205786
22915 5835501.26096779
22916 6129454.310271959
22917 6467339.915161207
22918 6785717.990286768
22919 8362035.079960477
22920 8528958.19148215
22921 9500556.369667884
22922 9310041.151851546
22923 9065618.405494416
22924 8743915.859910242
22925 8417700.800643355
22926 8083649.511253361
22927 7826711.73174007
22928 8596917.28209158
22929 8606978.834905181
22930 8572278.608488856
22931 8638300.442297636
22932 8746888.94418845
22933 8903379.212573184
22934 9077328.036049629
22935 10155696.955570968
22936 10229525.359526038
22937 10320160.479101542
22938 10022029.79964403
22939 9913812.925361808
22940 9785017.378317615
22941 9604556.378565311
22942 8931830.295625724
22943 7852251.246478386
22944 7691957.164699323
22945 8068525.303293434
22946 8027824.890712958
22947 7918802.382218194
22948 8513096.0359009
22949 8464534.379797809
22950 8474538.78479076
22951 8588588.663230445
22952 8951412.771717459
22953 9121925.80360024
22954 9255684.579399759
22955 9362451.6624001
22956 8699960.529999295
22957 8634282.898658946
22958 7937081.205584979
22959 7491215.385551387
22960 6387230.919700993
22961 6339291.240312319
22962 6348740.0670542875
22963 6563203.087048686
22964 6258136.497809559
22965 6952353.197036727
22966 6876020.932953664
22967 6784830.996844789
22968 7269578.936378503
22969 6790033.907727026
22970 6502824.462198839
22971 6243756.801553201
22972 6115217.694881621
22973 5537027.7986876285
22974 4388643.397602618
22975 4281871.919969961
22976 3422048.5606349315
22977 3360235.7472091634
22978 4131870.6823770627
22979 4294777.216781449
22980 4790823.309891373
22981 4569452.741226052
22982 4421439.226457494
22983 4400175.981492378
22984 5108779.573523745
22985 5073047.843621684
22986 5098962.39485584
22987 5181320.829717464
22988 5255494.688893204
22989 5349368.000854528
22990 5500827.998410779
22991 5987837.19481792
22992 6062246.662367929
22993 6108951.348027976
22994 6121726.928367084
22995 6100190.377085996
22996 6055031.8991052685
22997 5997659.265735059
22998 5916288.788173886
22999 5897719.856830466
23000 5968960.28573624
23001 5464220.225812497
23002 4791318.504254809
23003 4886542.601509235
23004 4116158.9906184175
23005 3218231.166348325
23006 3276753.670281098
23007 3379468.235397935
23008 3472332.4798660195
23009 3622257.1449687527
23010 3744913.0457579736
23011 3865450.2923715035
23012 3998916.1467493195
23013 4125934.0308448602
23014 5524642.071753903
23015 5680920.432414294
23016 5823057.949572173
23017 5956256.070255798
23018 6032954.886874387
23019 6115816.011925999
23020 6155467.625149875
23021 6189235.523475003
23022 6226622.014556919
23023 6263089.95779822
23024 6289401.815226835
23025 7709265.208107826
23026 7807125.771612615
23027 7878413.411755103
23028 8814817.102258457
23029 8803626.107423156
23030 8764767.185906375
23031 8681796.706074962
23032 8636715.94612344
23033 8504168.342313914
23034 8394843.908925578
23035 8278096.812092708
23036 8154996.131398601
23037 8125093.792757787
23038 7988654.9966153335
23039 8333828.206669088
23040 8160966.951607956
23041 7979284.243251976
23042 7789686.160642593
23043 7609541.766771958
23044 7416247.493212628
23045 6395284.437206896
23046 6182465.317042715
23047 5996996.979900464
23048 5449821.378915886
23049 4891409.353230546
23050 4739489.406409136
23051 4654745.251529683
23052 5043473.909423874
23053 4964183.559720522
23054 5060568.661175063
23055 5149110.308165126
23056 5323276.184311505
23057 5485545.85877753
23058 6030508.429264799
23059 6141293.928669331
23060 6328398.142656815
23061 6319628.005770507
23062 5257961.953057432
23063 5018409.882952834
23064 4964436.759235841
23065 4416010.192085078
23066 4411817.378560838
23067 4474126.866360735
23068 4568207.839304637
23069 4700581.654975136
23070 4827008.743314722
23071 4953401.968847562
23072 3950148.9154021484
23073 4010513.2126490753
23074 4058202.875788439
23075 4139366.563980148
23076 4221061.8192088725
23077 4327003.570143603
23078 4478187.8236026745
23079 5946841.859335981
23080 6142390.4812344005
23081 6357333.880803487
23082 6525742.473661248
23083 6625864.386656771
23084 6716360.983336258
23085 6718242.387822826
23086 7313181.231857039
23087 7167126.1011491
23088 6839488.217815008
23089 6610621.1895848485
23090 6362801.534011225
23091 6153153.357719965
23092 5984513.921848186
23093 5831772.475774398
23094 5714602.235650366
23095 5120994.893208395
23096 4943904.789691119
23097 5808169.396006124
23098 5704352.8472306775
23099 5534679.966246491
23100 6456608.811209324
23101 6685748.857531294
23102 6764210.352970648
23103 6877310.839584356
23104 7124004.373409245
23105 7542970.136819673
23106 7423893.023220829
23107 7325303.573112634
23108 7284193.949959489
23109 7277767.149680515
23110 7329074.933068281
23111 7428310.031375936
23112 7433957.955415128
23113 7451489.463247344
23114 7152151.840105023
23115 7449689.025144424
23116 7009801.73817627
23117 7005507.659422108
23118 6831084.612738435
23119 6687903.899663179
23120 6612785.313387507
23121 6576540.3268505875
23122 6607313.792588658
23123 6708331.296235744
23124 6765943.824278452
23125 5681713.796411619
23126 4753946.734736416
23127 4755514.718257916
23128 4754111.432020145
23129 4784968.224148543
23130 4887147.646962036
23131 5051731.681894753
23132 5233211.971669264
23133 4397906.89054186
23134 3934537.223290461
23135 4088503.176562269
23136 4242943.181538644
23137 4389894.140204245
23138 5983449.112232864
23139 6850388.020883825
23140 7087478.239239214
23141 7391730.628185397
23142 7647427.173584603
23143 7838274.618452116
23144 7977205.855801377
23145 9197903.522401767
23146 7633696.203154878
23147 7554101.996066288
23148 7220088.459510385
23149 6856734.862200571
23150 7635403.560392058
23151 7455328.0390477795
23152 7646818.049304593
23153 7826914.071854266
23154 7070038.553534899
23155 5835517.003791761
23156 7405089.925953085
23157 7553874.618332478
23158 7791992.303934583
23159 6942173.730503614
23160 7152775.177118556
23161 7131230.987189771
23162 7073547.466583562
23163 7546369.594811965
23164 7401365.791019813
23165 7209040.650177547
23166 7061566.970891033
23167 7081862.714558301
23168 6778669.178765186
23169 6622761.946787198
23170 6345058.422198163
23171 6162850.051690845
23172 6709695.35487074
23173 6077215.91887269
23174 5800900.721254052
23175 6078096.88102916
23176 5923794.7184676835
23177 5726294.322615867
23178 5592935.952681229
23179 4963529.46968658
23180 4808326.620010371
23181 4670641.1106612105
23182 4473176.523397961
23183 4253798.436633517
23184 4040915.7215280086
23185 3793816.952197581
23186 3539763.813226679
23187 3319690.3986756667
23188 3133936.9587062118
23189 2995509.6165864314
23190 2907529.585661997
23191 2879860.066925183
23192 2912664.156442282
23193 3020413.310610773
23194 3188646.428554275
23195 3439427.2283828147
23196 3912660.1237023277
23197 4297997.56479174
23198 4756855.374396918
23199 5162182.663664484
23200 5535258.2589321835
23201 6121628.519967415
23202 6494475.8510684
23203 6832094.119950719
23204 7137516.163058705
23205 7328643.583623582
23206 8350989.941485278
23207 8846672.98810608
23208 8507290.807286408
23209 7153390.016265025
23210 6646253.043899955
23211 6024523.90930073
23212 5551623.603782451
23213 5142988.027737632
23214 5076835.981667856
23215 4841839.582074603
23216 4535074.538369732
23217 4340434.308557587
23218 4267540.1999901505
23219 4292070.357318478
23220 4425027.850626385
23221 4518230.94321094
23222 4706677.108953086
23223 5119622.6497777505
23224 5347070.278346256
23225 5965887.840298113
23226 5990199.896842421
23227 6260075.0094539
23228 7388608.817596597
23229 7733904.133262531
23230 8067832.538165329
23231 8415582.837317323
23232 8781043.750247035
23233 8708641.181608513
23234 9044622.077026622
23235 9469532.143909568
23236 9843790.513153562
23237 10201236.447650181
23238 10425329.834024308
23239 10767782.59473637
23240 10911453.060991324
23241 11086132.109722776
23242 11531566.405169195
23243 11826744.556342924
23244 9904473.317485094
23245 8592201.050709238
23246 6933825.474316725
23247 6900259.8085284745
23248 6905504.553866384
23249 6927407.002605621
23250 6949626.621412529
23251 6925885.467035431
23252 6933854.9486671975
23253 6933066.628701473
23254 6967546.071182917
23255 7057516.233491318
23256 7187093.670948211
23257 7384936.69138723
23258 7593142.584912595
23259 6255296.675866142
23260 6347497.440237818
23261 6408036.359690073
23262 6477350.129640651
23263 6528575.129807668
23264 6591814.459044818
23265 6675056.7432814045
23266 6774838.953051089
23267 6878776.638054318
23268 6737420.479009996
23269 8353472.336986429
23270 8228751.078273037
23271 8049038.536271847
23272 7780611.475038693
23273 7465926.770961066
23274 7105552.927895855
23275 6808328.236613689
23276 6533201.210145056
23277 6334739.779284394
23278 6356548.771238041
23279 6229831.122186686
23280 9004223.726670057
23281 9625348.36318345
23282 9640366.51286391
23283 9794023.996148601
23284 10114806.751657108
23285 11948030.426967137
23286 12504556.20013485
23287 13033620.424873345
23288 14622547.420021217
23289 15460793.458156979
23290 15667215.160724722
23291 15687038.710719556
23292 15508114.233559618
23293 15054615.84135913
23294 14422244.69676823
23295 13658137.410794472
23296 13040013.139532782
23297 10937011.64856739
23298 9640264.823110124
23299 8948374.218628185
23300 8418598.315195132
23301 8106087.589669138
23302 8009810.4140042225
23303 8078487.403082736
23304 8253058.223070923
23305 8445272.478231635
23306 8521015.679693691
23307 8673918.606865443
23308 8811528.777748592
23309 9317472.407634437
23310 8932323.474376865
23311 8970277.58365501
23312 8976455.078550672
23313 9152428.995239235
23314 8989657.958480444
23315 8814466.995007364
23316 8711596.049298558
23317 8769393.204804957
23318 9094753.520734563
23319 9069921.9766459
23320 9095149.550343899
23321 8549358.208511008
23322 8532803.630760182
23323 8436051.375701997
23324 8082233.921631652
23325 8025505.578811736
23326 7810385.652944007
23327 7534550.709436078
23328 7439190.381873089
23329 7464888.6525976695
23330 7546144.761017136
23331 7751907.849468951
23332 7774091.567772191
23333 7975947.262737841
23334 8797678.132975936
23335 7788670.245766823
23336 7705125.71715216
23337 7434058.2205879195
23338 7344906.954736589
23339 7097167.751733907
23340 7094516.9426824665
23341 6944200.504165985
23342 6484497.40573265
23343 6314150.423039823
23344 6172183.069311277
23345 5987144.861853783
23346 5786295.855905182
23347 5641590.719331275
23348 5499175.755460931
23349 5418226.717600944
23350 5366082.5326906
23351 5321693.27734664
23352 5323423.893828776
23353 5320651.362491891
23354 5351736.895998797
23355 6008879.537108225
23356 5768810.564251251
23357 5654705.947197995
23358 5008783.588706643
23359 5115144.803266443
23360 5389034.214643114
23361 5855015.850075849
23362 6432049.552233701
23363 8067630.434232114
23364 8790349.262027841
23365 9496625.989627145
23366 8878370.593555523
23367 9313137.85170882
23368 9735830.200688794
23369 8327884.408720995
23370 8416051.654071093
23371 6801070.28483447
23372 6823842.026239556
23373 6849394.396497855
23374 6908349.1034440035
23375 6967169.687086364
23376 7049777.921949367
23377 6936597.107680399
23378 8460938.789655399
23379 8414799.81816122
23380 10012593.708629463
23381 9971710.305863341
23382 9895205.262057267
23383 10803210.3025693
23384 10721942.048678871
23385 10642040.635417482
23386 10772441.34621714
23387 10542991.173097828
23388 11541808.860086922
23389 11335522.6216148
23390 11114095.721037522
23391 10914423.884421095
23392 10701805.522258593
23393 10247716.530660756
23394 8772214.57689775
23395 8567068.016288692
23396 8413897.333584659
23397 8411679.716102889
23398 8410174.382337356
23399 8470728.15286707
23400 7385526.633779556
23401 7420849.249088425
23402 7462405.778404795
23403 7555492.99549459
23404 7542068.379473437
23405 7497899.325100198
23406 7563549.464627796
23407 7381214.591597496
23408 7168288.053380478
23409 8044804.321984815
23410 7785355.717683853
23411 7723133.163183546
23412 7476026.672433546
23413 7249712.931192769
23414 6165662.014264183
23415 6035837.999461593
23416 5827316.737608566
23417 5648462.593917344
23418 5436767.895937394
23419 5592135.3660305105
23420 6190760.099788533
23421 6056390.413760628
23422 5992606.513209467
23423 6016988.02477593
23424 6093008.135450159
23425 6199064.847373883
23426 6020809.807248829
23427 6029658.419055881
23428 5741653.355111581
23429 5598685.938112841
23430 5434788.775716337
23431 5264041.446076234
23432 5089403.511602342
23433 4958829.438561978
23434 4890365.239294186
23435 4944939.7515058555
23436 5059342.381172896
23437 5300427.009963382
23438 5635923.712267322
23439 5984444.772010764
23440 6350616.758540785
23441 6673151.241424765
23442 6951626.803452741
23443 7209681.506661551
23444 7374889.277442684
23445 7493600.353399819
23446 7571052.832143682
23447 7658729.616873326
23448 7728012.78985794
23449 7762004.822187681
23450 7248877.345858195
23451 5339171.2436844325
23452 5195860.484328462
23453 3962084.9164239406
23454 2671837.4138160283
23455 2562225.766753823
23456 2469225.8130360045
23457 1616048.6732432249
23458 1559503.570249324
23459 1506199.1142851443
23460 1449514.0741965747
23461 1401097.264325172
23462 1358877.697332552
23463 1327129.2273321857
23464 1309312.657065807
23465 1297213.5610014435
23466 1290741.5405598246
23467 1291218.641116966
23468 1283711.506174547
23469 1283602.1765199436
23470 1291410.5743249222
23471 1307019.3867231868
23472 1333011.4334446045
23473 1377711.6610635684
23474 1439963.8432528197
23475 1512715.2865997136
23476 2359819.4409379596
23477 2508594.290370137
23478 3895603.220130124
23479 4156470.1550006103
23480 4442524.464385224
23481 5688418.868992641
23482 6433104.8297820445
23483 6873272.957980876
23484 9996043.61112491
23485 10439310.447812516
23486 11029318.266612964
23487 11571681.051166857
23488 12084349.208313093
23489 13270215.697056636
23490 13687856.095142875
23491 12957286.181932967
23492 13205891.89269709
23493 13374696.617732357
23494 14169755.152190581
23495 14064237.238700792
23496 13786612.11357182
23497 13375808.099795561
23498 14639424.899769826
23499 14921210.83428188
23500 13969882.41363008
23501 12985911.53377602
23502 12069640.061647791
23503 11176812.10072302
23504 10445269.779220924
23505 9794866.739265777
23506 9367974.21073754
23507 9065467.27499414
23508 8901942.035355229
23509 7814737.843119668
23510 7158032.501977256
23511 7202378.598723119
23512 6177065.853703584
23513 6208644.997054868
23514 5671708.015970649
23515 5567604.689765359
23516 5404841.237809255
23517 5217418.271385448
23518 5009647.011259103
23519 4726115.407729416
23520 4823954.298995917
23521 5452601.750240656
23522 5296181.875740518
23523 5219859.370618602
23524 5259436.838575452
23525 5449143.811620797
23526 6623420.93400211
23527 7030249.371744589
23528 7473144.2980909515
23529 7969600.700037932
23530 8560744.537332436
23531 9184514.673945798
23532 9718595.312449284
23533 10331630.66930592
23534 10714478.207198896
23535 10829828.58076395
23536 10917138.40817895
23537 10773109.100037271
23538 10769883.08149517
23539 10744889.56705773
23540 10778055.145127868
23541 8348015.451399737
23542 7048654.651184357
23543 7135453.239272768
23544 7315150.987450778
23545 7500700.540613846
23546 7759806.257991013
23547 8244283.686194117
23548 12602858.575336635
23549 11268248.745810105
23550 12255418.248871202
23551 11997746.971545637
23552 11775634.517253999
23553 11379595.765539993
23554 10630145.02345645
23555 10341608.981072273
23556 8692815.257444412
23557 8241309.333660419
23558 7090763.711981801
23559 6244055.174453911
23560 5729013.944092354
23561 5245141.257798637
23562 4894754.365870755
23563 4706458.207272507
23564 4628007.1584542785
23565 4776196.308347707
23566 5033716.599896558
23567 5292739.068239127
23568 5645257.436385186
23569 5998370.973863652
23570 6860245.070450197
23571 7190126.055195885
23572 7592995.884048927
23573 7927041.553053235
23574 8315314.926418684
23575 8695248.241390549
23576 9047007.672640009
23577 9328430.615850974
23578 9500537.88719278
23579 8593828.807487747
23580 8520861.758073939
23581 8410139.296394283
23582 8264490.156058247
23583 8093077.436428221
23584 7865911.145775467
23585 7623787.384959938
23586 6775976.700470977
23587 6497780.459829344
23588 6236308.600784024
23589 5996415.909712408
23590 5987051.105072546
23591 6265276.649115315
23592 6125217.392771011
23593 6344583.044591797
23594 6323743.0497546345
23595 6368985.899039145
23596 6449204.640955012
23597 6638115.420862957
23598 6925758.639428181
23599 7231169.985957146
23600 8492448.425828103
23601 8794520.980569566
23602 8964139.428441502
23603 9095118.496572452
23604 9134592.344077399
23605 7562738.125324784
23606 7407140.650705172
23607 7153100.250246899
23608 5825494.589757018
23609 5793039.876579803
23610 5765127.968074439
23611 6959708.805673749
23612 7165213.733834875
23613 7486441.450013562
23614 8630638.9883666
23615 9108273.189156616
23616 9673482.77127862
23617 10292439.745875943
23618 14155572.983329877
23619 14771194.370784136
23620 15287706.94005069
23621 15678756.550330924
23622 15987777.489759106
23623 15924226.21393596
23624 15974108.777602365
23625 15580437.127228659
23626 15399364.87850173
23627 15204835.677210737
23628 13282391.441804089
23629 13068663.80744041
23630 12879275.121619035
23631 12181003.26734095
23632 11839043.729830386
23633 11532551.564940521
23634 11131413.389129411
23635 10963812.525520919
23636 10505470.446810065
23637 9999292.555368673
23638 9550193.536649989
23639 9038719.992327532
23640 8770310.718305277
23641 8269538.256542487
23642 7718961.842494695
23643 7333403.7436437905
23644 7036160.398821537
23645 6801921.017028975
23646 6666483.519062982
23647 6676129.60768877
23648 6787478.753459692
23649 7012350.8803888
23650 7336496.619776376
23651 7569396.677428507
23652 7908951.658652479
23653 8243113.159073881
23654 8534685.334732324
23655 8817129.290260483
23656 9047006.555532007
23657 10276436.141711356
23658 9918900.62793762
23659 9831096.421528824
23660 8776369.43259332
23661 8584339.847489519
23662 8450596.151447998
23663 8554189.684064532
23664 8556426.161895681
23665 8660108.116925618
23666 10007879.700196698
23667 10220475.03414268
23668 10478430.682453407
23669 10831792.05707269
23670 11201187.996116145
23671 11614210.010312336
23672 12240457.866972161
23673 12723892.375659034
23674 13264345.103086673
23675 13864481.85759202
23676 12786910.242206927
23677 13394450.209306171
23678 14441438.778060496
23679 13336532.747227857
23680 12931638.152758222
23681 13450239.007397637
23682 13985085.366187327
23683 12691282.418677833
23684 12511959.953541042
23685 12628514.581954801
23686 12692792.904586375
23687 12660656.703407573
23688 12540869.95583201
23689 11162245.03968271
23690 10798196.781250486
23691 8153906.551783345
23692 7830796.7555997865
23693 7507805.779612121
23694 7298618.701117655
23695 7159022.610408346
23696 7098006.021502003
23697 7062771.419560155
23698 7092865.719772423
23699 7116672.096817308
23700 7148191.356442066
23701 7161349.207437829
23702 7154491.78256591
23703 7119975.368364062
23704 7459711.4207553
23705 8137100.795373635
23706 9035719.980246454
23707 8609941.236291153
23708 8272522.932814178
23709 7972326.884406388
23710 7733877.9246112155
23711 7571909.321558403
23712 7451265.363254074
23713 7137110.829312154
23714 6907653.718627022
23715 6446833.590047387
23716 6226596.768400372
23717 6047433.020920916
23718 5950909.071387605
23719 5959000.330365949
23720 6921756.935486902
23721 7101480.505608642
23722 7355619.130269718
23723 7615377.350630708
23724 7896849.174432603
23725 8135591.762276275
23726 8353703.224248295
23727 8808127.964810802
23728 10067131.63254995
23729 10436343.620389575
23730 10986925.363386191
23731 11160774.509687515
23732 11377648.052516121
23733 11304394.078339614
23734 11509524.946675612
23735 13439615.788939178
23736 13866292.511963468
23737 14117080.728698194
23738 13992494.205015734
23739 14185139.563770963
23740 14223522.156578936
23741 14387342.191170003
23742 14854209.171671556
23743 15053167.666466324
23744 15221623.181357123
23745 15193402.960579192
23746 15084593.974956624
23747 14885372.448307477
23748 14679587.798742374
23749 14463226.264931941
23750 14131320.660319319
23751 14640292.25949565
23752 14394375.300787125
23753 14137763.968214955
23754 13148691.145537386
23755 12899228.567272127
23756 12629153.998660395
23757 12335366.79512295
23758 11939077.329292433
23759 11830802.082020195
23760 11299828.234408928
23761 10882002.006380768
23762 10532949.754778864
23763 10417867.671781287
23764 10919839.510996118
23765 11002150.245706439
23766 11179693.19517012
23767 11369834.507100962
23768 11526202.7613808
23769 11623880.740712455
23770 11692838.658101715
23771 11644572.354659459
23772 11643799.995728884
23773 11633039.264741188
23774 11936486.406834185
23775 11479013.011455655
23776 11538510.750549562
23777 10039389.498760905
23778 10021132.644841498
23779 9900557.818634497
23780 9788133.531774914
23781 9690517.262820931
23782 9038329.932028506
23783 8790757.427487707
23784 8541897.757408703
23785 8455083.313453088
23786 8575327.286151191
23787 7429158.584903795
23788 7363429.430695875
23789 7464265.0827023005
23790 6735214.240525984
23791 6602525.393209634
23792 6424626.15411477
23793 6315605.406850587
23794 6294782.0593358
23795 6297093.988813758
23796 6377098.7800336145
23797 6490800.177453963
23798 6620038.65870681
23799 6730288.9899105625
23800 6809428.274087662
23801 5900684.544192795
23802 7393479.576760867
23803 7276955.078803176
23804 7103233.779859098
23805 6886798.601951409
23806 5593716.566723369
23807 4944124.30723221
23808 4071323.63933876
23809 3792117.2681947374
23810 3521095.9040276287
23811 3322437.596672062
23812 3174059.041357054
23813 3104385.0048537315
23814 3108474.807506594
23815 3201780.6604439756
23816 3196697.3362682094
23817 3456925.020710706
23818 4786854.693182396
23819 5322599.632911697
23820 5927650.555815999
23821 6602653.936082079
23822 8584779.985147664
23823 9583926.028540868
23824 10265689.175476644
23825 11655513.200945506
23826 12261071.815136932
23827 16189024.541725187
23828 16537086.200050294
23829 16848000.039373558
23830 17091244.57112533
23831 16253619.669407351
23832 18333346.489706933
23833 18175775.718266726
23834 17982267.050564926
23835 16390705.03522922
23836 16659775.374959365
23837 16310093.612378484
23838 15730038.244663103
23839 15811313.356814453
23840 15479164.344978474
23841 15242314.884405423
23842 15039350.317566777
23843 14966016.541343942
23844 14521569.300673625
23845 15643864.226420479
23846 15652414.035597328
23847 15588768.874750614
23848 15454545.446447486
23849 15380709.080314934
23850 15253253.872952182
23851 15177422.610773727
23852 14964351.371246621
23853 14767266.972010281
23854 14530988.07004753
23855 14355874.700185968
23856 13925231.948405577
23857 13670657.170830868
23858 13403801.437711569
23859 11502524.523382798
23860 9467617.278029744
23861 9207365.987039987
23862 8888305.940624475
23863 8282131.737694495
23864 7872237.305659714
23865 7960520.190565381
23866 7389279.316027774
23867 6784422.021091557
23868 6246086.792811175
23869 5464963.8916469375
23870 5101650.604765867
23871 4784570.550991847
23872 4388990.00758627
23873 4090824.6891406868
23874 4319228.471073118
23875 4035890.786499875
23876 3977538.798206368
23877 4054153.757435063
23878 4243758.674558617
23879 4682534.572832352
23880 4988972.912197784
23881 5334770.671337981
23882 5710398.707905265
23883 6045924.128144377
23884 6351101.881764891
23885 6602169.9219168415
23886 6758609.070456322
23887 6830528.930688832
23888 6804067.754422706
23889 6700823.439257519
23890 6525812.163781059
23891 6323145.938290228
23892 6106828.092882015
23893 5907273.948538383
23894 5607692.974384148
23895 5400445.8838745095
23896 5242456.819279029
23897 5122253.991497588
23898 5099865.192548545
23899 4362941.73384959
23900 4515568.900377076
23901 4799586.447005131
23902 6115740.209890348
23903 6628456.822216016
23904 8562812.68120738
23905 9180142.3852414
23906 9709774.088024162
23907 10182500.392024186
23908 10572370.65784009
23909 10771748.83209217
23910 10926642.44626317
23911 10972558.631844774
23912 10916410.88239321
23913 10146027.794411192
23914 9942376.307542276
23915 9669167.88421442
23916 9391037.451046815
23917 8939117.54547118
23918 8663211.954622105
23919 8688353.196160542
23920 8787534.629971245
23921 8869886.996075517
23922 9110715.839236483
23923 9433214.594758354
23924 8892101.904896826
23925 9340828.13569823
23926 9945474.139440408
23927 10711707.380902618
23928 11538203.275740145
23929 11595030.489814613
23930 12630592.625470249
23931 12981601.728447022
23932 11189431.853871206
23933 12238651.44770695
23934 12526232.529722974
23935 12773067.190327123
23936 12802033.782699926
23937 12711754.426846404
23938 12571602.108901449
23939 12321300.563786898
23940 12064489.756380608
23941 11797948.518982112
23942 11529820.371885171
23943 11323528.773300488
23944 11109103.791203182
23945 10845982.165019272
23946 7476085.409144867
23947 7284996.703024086
23948 7180151.225501103
23949 7072674.033202048
23950 6973718.878107134
23951 6889135.190622365
23952 6765632.778386794
23953 6647809.828449024
23954 6473759.118968392
23955 6292187.56562217
23956 6084929.9666221235
23957 5875113.92623156
23958 5416595.011439262
23959 5163954.770284675
23960 4896457.4524922725
23961 4633411.336894279
23962 4383242.630473048
23963 4131119.7701173336
23964 3945901.1044649244
23965 3819390.9144808543
23966 4150369.2005658248
23967 4112020.807560339
23968 4116042.717774483
23969 4152691.2248304742
23970 5031227.220537424
23971 5192807.992031946
23972 4114174.344452724
23973 4344816.165880143
23974 4473903.57460544
23975 4776155.641080595
23976 4923030.303166798
23977 5021285.2385258665
23978 6499624.097812597
23979 7297867.308283073
23980 7097896.660705866
23981 6866169.924567009
23982 6599007.394607029
23983 6316856.622219736
23984 6074443.449511488
23985 5070768.636484842
23986 4906764.908681912
23987 4782778.034469963
23988 4720032.16907469
23989 4597157.720504007
23990 4563417.789619444
23991 4230785.975600581
23992 4202156.511617639
23993 4185375.4747905764
23994 3034405.470207146
23995 2143689.8246516553
23996 2086792.790131973
23997 2025904.3242888604
23998 2008534.468051957
23999 1953831.9411856232
24000 1940820.7349867465
24001 1939399.8045435853
24002 1948068.2680101558
24003 3327359.350444139
24004 3391095.495503883
24005 3472808.7369845915
24006 3587626.2726629307
24007 3713330.8582279524
24008 3839355.3125982624
24009 4696684.289865638
24010 4807604.357071791
24011 4947843.21247045
24012 4922734.897867661
24013 6082710.209376644
24014 6170227.847888958
24015 6168783.317619742
24016 6238273.357157395
24017 5130144.7294320315
24018 5930110.298278952
24019 5734527.444515907
24020 5719938.242618662
24021 5757626.2335483935
24022 5814908.100587414
24023 5924622.343537298
24024 7164664.727933488
24025 7371215.086986048
24026 8067168.885378594
24027 8459770.46649422
24028 8871241.36138803
24029 10456016.013796542
24030 10795146.069654794
24031 10984235.734346095
24032 11069385.361656971
24033 11016195.746775787
24034 10952447.547206813
24035 10895775.510138242
24036 11540437.224804811
24037 10237232.137857882
24038 10462778.44201145
24039 10378668.544367434
24040 10358567.22050503
24041 10325745.704433324
24042 10404664.690051625
24043 10621559.18058773
24044 10148239.339089936
24045 10571556.477138357
24046 10982655.691432972
24047 11262904.872796843
24048 11389804.630159536
24049 10050230.369905608
24050 9829053.430261012
24051 6965906.548795762
24052 6731686.97643838
24053 6249499.8031216385
24054 6029357.101267237
24055 6747624.390962512
24056 6615050.979287979
24057 6573486.443399914
24058 6683278.370915574
24059 6768725.9569002045
24060 5383733.127409306
24061 5497971.282970704
24062 5614117.432732268
24063 5770224.761889201
24064 7897765.294487352
24065 8009797.96228562
24066 8019502.769823712
24067 7960576.834513079
24068 7828681.530124352
24069 7638962.937754949
24070 7384421.243051662
24071 7117982.334206101
24072 6873404.366080047
24073 6508957.652837587
24074 6282582.517501877
24075 6260479.98093544
24076 6162986.691908856
24077 6128978.38849371
24078 6132619.15970684
24079 6153809.7915078355
24080 6181911.869000059
24081 6215254.681207273
24082 7307846.261486409
24083 7314988.902375302
24084 7323992.705327373
24085 8374669.423792529
24086 8386085.067321483
24087 8532535.4449627
24088 8772660.522841085
24089 8667675.98527347
24090 8975160.980351724
24091 8468518.705587132
24092 8670195.785448574
24093 9745638.217405885
24094 9951193.29616845
24095 10191028.376201
24096 10355567.611697286
24097 11052358.310344897
24098 12385169.316798626
24099 12305263.239138031
24100 12100212.219157135
24101 11923697.282434229
24102 11735379.205778541
24103 11526018.576220235
24104 11123901.810529174
24105 10921643.881918052
24106 10768483.375751214
24107 10646002.348732198
24108 10522548.271131016
24109 10585250.410315335
24110 11229516.581307434
24111 11081993.613373896
24112 9607617.758851353
24113 8329891.431069976
24114 8123997.10345687
24115 7957062.728925057
24116 7793320.816038141
24117 6962854.508022862
24118 6844942.391716172
24119 6616880.419608098
24120 6423570.743582576
24121 6271418.180662029
24122 6218697.203095996
24123 6370843.03262561
24124 6301551.514095333
24125 5490991.021018976
24126 5755891.678875574
24127 6001059.243570715
24128 6229677.893747936
24129 6435171.355176397
24130 7858088.6890195785
24131 9074118.690627865
24132 9074224.53650321
24133 9072777.677674167
24134 9054964.887530599
24135 10042413.481356777
24136 10456331.83176434
24137 10422368.703266283
24138 10275556.209019495
24139 10047416.078752946
24140 9809585.64122722
24141 9534643.563907925
24142 9221673.616532344
24143 9072446.197231218
24144 8738143.670852786
24145 8507317.519884214
24146 8289920.172734713
24147 8178572.725887863
24148 8085614.890662426
24149 8023166.242249783
24150 7937903.6898142155
24151 7812243.572003522
24152 7686056.386386555
24153 7552598.282805771
24154 7423175.6501029525
24155 7334348.64025614
24156 7345799.19188367
24157 7375367.721010966
24158 7506229.36891178
24159 7678380.762543493
24160 7863705.58707273
24161 8055862.611480888
24162 7367410.381695751
24163 7537819.194459135
24164 8718948.441763397
24165 8994107.671162343
24166 8579179.28556436
24167 8660617.874191312
24168 8598330.502980333
24169 8579885.747453982
24170 8583702.796538558
24171 9258685.038209144
24172 8986655.435653163
24173 8733703.276244132
24174 8370129.505739057
24175 8105032.627133509
24176 7846730.865712178
24177 6057144.947302506
24178 5959027.640297618
24179 5932595.3660712205
24180 5981019.722871926
24181 6129962.917755415
24182 7059489.99601683
24183 7392016.032275329
24184 7779272.747537477
24185 8028853.766364935
24186 8406656.672685625
24187 8883094.927440153
24188 9149799.28906539
24189 9348967.914356345
24190 9445265.775830235
24191 9472607.344772233
24192 9372907.386036439
24193 9182249.150928114
24194 8897740.275370745
24195 8559154.755529528
24196 8154425.861559126
24197 7711839.045125586
24198 7340346.95074822
24199 7044320.370302799
24200 6873439.772203167
24201 6850618.076526511
24202 6925383.753721456
24203 7178549.612940584
24204 7631921.42621504
24205 8209844.498218144
24206 8990850.80206602
24207 9726430.767767992
24208 9977292.7712883
24209 9815615.81215455
24210 10034957.308492081
24211 10336041.494973669
24212 10552691.193536079
24213 10033302.226762764
24214 8184989.334915716
24215 8102279.250928617
24216 8006966.127686631
24217 5948693.971700836
24218 6070855.028705604
24219 5932643.540593347
24220 3869749.8021411076
24221 3788025.53206505
24222 3713283.5144454604
24223 3637162.7619704558
24224 3554395.932357669
24225 3468842.2063100124
24226 3395494.34909717
24227 3292097.0906710722
24228 3213165.334918793
24229 3167556.7230165433
24230 3159024.8246193537
24231 3163424.36863197
24232 3132431.434515519
24233 3148035.810512187
24234 3152327.347126132
24235 3180297.064162387
24236 3259107.4493670235
24237 3379166.4434107905
24238 3532883.1455498314
24239 3759377.830150589
24240 5938445.424146374
24241 6278737.575111509
24242 6641636.393363686
24243 6934527.576112954
24244 7047676.8830421055
24245 7225087.9703358
24246 7339777.897032452
24247 7364270.7619877085
24248 8703161.1406499
24249 8858663.58281174
24250 10506649.054902159
24251 11911803.514913643
24252 11375737.64460395
24253 10611331.488458224
24254 6844600.699171784
24255 6519111.849095857
24256 6190308.660999515
24257 5986851.113705468
24258 5911396.507917704
24259 5909991.488040153
24260 5979896.526432465
24261 6080280.711202191
24262 4830692.071578517
24263 4893457.921208059
24264 3902495.6094308496
24265 3924110.4920830503
24266 4478322.499485884
24267 4476179.286544988
24268 5811106.385036536
24269 5670526.433145922
24270 5497910.2508243
24271 6502913.997538197
24272 6145156.232798043
24273 5902201.016628915
24274 5719108.100372136
24275 5600647.313351234
24276 5605332.040838568
24277 5534737.310952141
24278 7052184.480916609
24279 7279589.325079716
24280 7555101.293683789
24281 7888797.31474596
24282 8237980.7336364845
24283 9649912.377422508
24284 9896379.77035337
24285 10059209.45294722
24286 10126655.379578864
24287 10148391.686408931
24288 10061281.896053225
24289 10023425.046623943
24290 9455351.265563177
24291 9344061.856919957
24292 9410595.382861152
24293 9575313.956540467
24294 9541604.182434537
24295 10194560.19375783
24296 10296523.4816642
24297 10443184.936631221
24298 10590865.820430199
24299 11639597.503957018
24300 11934002.764567327
24301 11981522.03636573
24302 11999231.95884968
24303 11970982.931057129
24304 11854563.41218109
24305 11645259.731554026
24306 11395981.766011043
24307 11246994.421229625
24308 9686415.793048847
24309 9388466.802718526
24310 9159997.847310403
24311 8900224.124297589
24312 8679214.848764008
24313 8485473.03927289
24314 8318044.701351039
24315 8174587.353728378
24316 8118307.415720531
24317 7996395.896663086
24318 7888821.1593135325
24319 7792963.191267839
24320 7378584.322784387
24321 7241167.22719441
24322 7132566.6927577555
24323 6935108.89816007
24324 6741506.383678326
24325 6535909.7185256705
24326 6319157.598060393
24327 6014594.07370412
24328 5801028.103376212
24329 5562311.462111005
24330 5340737.130554793
24331 4354246.561277637
24332 4147705.269358977
24333 3974516.194224236
24334 3795050.053373268
24335 3673867.2588671097
24336 3636522.6830495573
24337 2908199.7440370196
24338 2989808.5014171014
24339 3162241.4903829903
24340 3400020.6650457834
24341 3739748.0254789675
24342 4164606.9424388898
24343 4648043.875247689
24344 5220552.340178628
24345 5830251.1717551565
24346 6376215.22464975
24347 7013183.215184158
24348 7563396.798403408
24349 8071308.908912947
24350 8514662.406923397
24351 8841344.036384035
24352 9470461.261568079
24353 11746668.52085569
24354 11745850.684794331
24355 11697977.439216275
24356 11611409.090533918
24357 11556357.016624058
24358 11315641.223804452
24359 11145695.334304223
24360 10954477.730483683
24361 10735568.344985874
24362 12471474.218900315
24363 12280922.568212325
24364 12186329.969041424
24365 12193462.224321455
24366 12136093.721103987
24367 12079015.951276904
24368 12009023.869995974
24369 11879631.151011394
24370 13234459.231134897
24371 12931028.749517957
24372 12512740.948202008
24373 12099717.336872606
24374 11671470.926357197
24375 11159647.107874494
24376 10695910.791324886
24377 10231973.780879043
24378 9784479.774572464
24379 9388505.402177267
24380 9047275.007316055
24381 8760443.879570551
24382 8569929.91857355
24383 8478133.868098214
24384 9005141.43991223
24385 8951305.276448496
24386 8948082.658428026
24387 8867207.767596317
24388 8836642.243770296
24389 8792003.98534834
24390 8752641.993415084
24391 8618031.093843307
24392 8868566.816856239
24393 8599499.574459564
24394 8271063.499218767
24395 7936639.390663766
24396 7583467.142315618
24397 6318024.581353835
24398 5978538.470540512
24399 5766721.739320551
24400 5553680.932670289
24401 5479577.712092065
24402 5574082.564813261
24403 5767985.261483979
24404 6048024.851894789
24405 6608943.831201884
24406 7049666.52896461
24407 7498066.355142881
24408 7977391.658055109
24409 8582301.103441505
24410 9553736.312411446
24411 10410077.122957766
24412 11078580.036953997
24413 11604813.778013043
24414 11841931.618448248
24415 12093172.481553493
24416 12351994.772771677
24417 13295303.112299822
24418 14809269.14921038
24419 13510827.428846039
24420 13350557.598693244
24421 12394735.294665068
24422 12079917.664682543
24423 11727776.120369008
24424 11507246.985818828
24425 11180798.204545565
24426 11015248.11532494
24427 10754808.476908702
24428 9919239.47370437
24429 9764670.168908827
24430 8741944.920035409
24431 8638819.012527827
24432 8657174.441644752
24433 9148039.60661148
24434 9833196.676754775
24435 10001133.438215874
24436 10229590.86364977
24437 10759831.590961557
24438 11485689.468646288
24439 12233437.951412825
24440 13001310.549050959
24441 15147019.139110392
24442 15803957.055517638
24443 17772161.47813834
24444 18235029.418707766
24445 18300664.10629151
24446 18527167.01986018
24447 18641394.511562355
24448 17356249.673396308
24449 17219368.383870035
24450 16999550.496762536
24451 16595643.847695654
24452 16288848.419321094
24453 15847101.276036283
24454 15277290.973050162
24455 14746867.693696376
24456 13660187.113265404
24457 12944502.78984472
24458 12313698.550096583
24459 10483732.136369938
24460 9378846.99629967
24461 8724662.269230092
24462 8613592.325126259
24463 8613525.651486585
24464 8742653.83898385
24465 8053324.851830557
24466 6740014.166962975
24467 6714492.086590127
24468 6633137.813909581
24469 6172057.043788667
24470 6026165.776068054
24471 5934491.113180636
24472 5900407.017572387
24473 5873736.4458539495
24474 5921436.174616528
24475 6014431.205213153
24476 6144975.118220563
24477 6293088.514353753
24478 6441285.702458799
24479 5261482.465311392
24480 5288543.864227009
24481 5272515.930037918
24482 5230858.941915139
24483 5176551.876839269
24484 3939700.1153750834
24485 2236456.998256649
24486 2225396.292107292
24487 2229373.475896292
24488 2242034.949839431
24489 2266999.445868672
24490 2295354.0980410716
24491 2324729.687205576
24492 2358397.4108336726
24493 2378352.891824485
24494 3881159.6341791726
24495 3821896.365358424
24496 4143914.1436131424
24497 4029757.2707318547
24498 3886603.2632146375
24499 3716940.9484476657
24500 3591334.7202268927
24501 4409447.572380256
24502 4272658.087195604
24503 4178393.222992607
24504 4101572.7673698175
24505 4074558.6368245697
24506 3787373.2566437563
24507 5370553.240537823
24508 5445812.361320882
24509 6347743.645222517
24510 5733141.232740752
24511 5869668.965221909
24512 6314200.372021131
24513 6379732.186600847
24514 6451593.253397493
24515 6539458.804512049
24516 6582313.795050534
24517 6666166.217401593
24518 7319657.294094034
24519 8136518.604700652
24520 8592633.675664328
24521 8788326.726332946
24522 8702594.99264193
24523 8471327.111886092
24524 8200597.7915656455
24525 7914952.047800163
24526 7622503.971282551
24527 7371637.469164189
24528 7145953.672904012
24529 6989662.172243941
24530 6917492.972782843
24531 6830779.346330126
24532 6763127.462220655
24533 6202226.952374388
24534 6102539.655380567
24535 5961893.0163015155
24536 5142305.593177256
24537 5002833.510654152
24538 4663663.210792858
24539 4150540.7154084085
24540 4373060.4370128205
24541 4459290.992305344
24542 5328483.845446599
24543 5482080.850197233
24544 5663561.07147463
24545 5045170.941174634
24546 4985755.114767979
24547 5160948.101238599
24548 5405875.743643919
24549 5612387.453899416
24550 5809313.6539631365
24551 5957062.309409138
24552 6402032.244375362
24553 6476315.8782284735
24554 6549295.265843426
24555 6630255.089998307
24556 6757568.809787819
24557 6969722.961156378
24558 7133675.550847107
24559 7340762.504547476
24560 7522918.383963128
24561 7913693.867722186
24562 7982847.102215916
24563 8015019.173297097
24564 7990075.638460302
24565 7938711.211142987
24566 7870836.218717626
24567 8503757.862042546
24568 8314988.615157273
24569 8087427.650889517
24570 8490410.076343386
24571 8082382.940061679
24572 6774456.497790559
24573 6410856.584126322
24574 6071414.574264946
24575 5958978.699846878
24576 6517861.76501343
24577 6345616.586361558
24578 6220341.587742544
24579 6449846.360755936
24580 6495410.124866597
24581 7210380.833719105
24582 7297690.9895795025
24583 7336699.403423026
24584 7409231.894532009
24585 7468595.48154947
24586 7516556.466291177
24587 7564340.062171108
24588 7712595.568161413
24589 6678479.380384173
24590 7063176.063230588
24591 8369333.017638208
24592 9072514.012354668
24593 9879814.068491438
24594 10291920.88150744
24595 11258010.790371258
24596 12064636.032379521
24597 12821909.81913024
24598 13040946.772600874
24599 13396321.919756873
24600 13549765.914917853
24601 13669819.814364042
24602 13630583.45152785
24603 13552905.485390808
24604 12733570.421551654
24605 12605086.61092391
24606 10751837.555185484
24607 10656032.026504075
24608 9063921.863273581
24609 9036178.5885196
24610 9009071.47276568
24611 8991571.974049171
24612 8888932.901280576
24613 8740874.385327922
24614 8519256.759409973
24615 8252836.014631622
24616 9247666.643525768
24617 8913794.182763675
24618 8603815.327025507
24619 8355585.471510725
24620 9411047.50547683
24621 9284939.541047
24622 9116677.418638896
24623 9409613.018055817
24624 9247904.712599102
24625 9111684.691378802
24626 9047313.141712405
24627 8960427.734516082
24628 8718191.331653899
24629 8582707.983371561
24630 6982947.298869063
24631 6771118.201515355
24632 6519880.505224721
24633 6321350.072569461
24634 6078688.64147981
24635 5844687.780613612
24636 5706748.376904088
24637 5580102.254913159
24638 5492623.615188806
24639 5814222.008748694
24640 5742992.167985744
24641 5994520.950541429
24642 5952036.36800312
24643 5961655.263552522
24644 6159149.097565965
24645 6217314.488538161
24646 6298317.721494624
24647 6364283.816097402
24648 6280862.76120687
24649 6295201.433699358
24650 6301058.424909068
24651 6324433.988709825
24652 6352577.806697861
24653 6663819.585440543
24654 6725690.467928627
24655 6832009.11054807
24656 6956349.865557042
24657 7172367.612690795
24658 6599301.404891658
24659 6636847.975795148
24660 6651861.946778117
24661 6194578.546440117
24662 6171953.641694151
24663 6167851.898377024
24664 6187653.087630358
24665 5804618.964790539
24666 5822226.077633798
24667 5915796.399273759
24668 6042154.4158401415
24669 6999429.773045292
24670 7091902.948778668
24671 7274994.065767951
24672 7429524.917846316
24673 7624910.470332959
24674 7870230.332755522
24675 8088120.153206357
24676 8185483.290174377
24677 8243222.9966974035
24678 8244625.990722698
24679 8129679.306549817
24680 8007294.746714712
24681 7855685.464503491
24682 7720366.757575764
24683 7608219.206320424
24684 7510112.661134505
24685 7515124.104775206
24686 7644087.028041542
24687 7914483.335054171
24688 8255335.808767496
24689 8922464.085883146
24690 9423543.22891551
24691 10401642.019151209
24692 12261258.312670616
24693 13784635.706557179
24694 14745287.139299355
24695 15318122.634488594
24696 15847945.484249447
24697 16332462.120486896
24698 16760601.5123991
24699 17034864.81881083
24700 17179825.089316145
24701 17162552.456281632
24702 16815802.18032171
24703 16387714.535979025
24704 15871448.613496713
24705 15327822.392217766
24706 15921833.578853669
24707 15316358.171942769
24708 14789996.540081855
24709 14306359.202875862
24710 13833494.914132213
24711 12627920.009525327
24712 12212067.160646921
24713 11895805.322167164
24714 11626430.236549702
24715 11452709.987882249
24716 11301795.767660553
24717 11177604.116536379
24718 11032232.38879368
24719 10830573.811481848
24720 10624209.73829388
24721 10433395.656871423
24722 9954718.84334786
24723 9887536.575081903
24724 9799577.421835033
24725 9684597.34202154
24726 9484052.080095686
24727 8287246.057579796
24728 8062316.383277421
24729 7268417.3581546815
24730 6846630.591096859
24731 6433570.313835273
24732 6055724.29353102
24733 5774793.183317346
24734 5436543.564002898
24735 4990095.26253912
24736 4429877.894540568
24737 4540194.949700951
24738 4688746.631405148
24739 4919209.310035815
24740 6280304.932122934
24741 7240135.6475452185
24742 7891373.66555581
24743 8649885.265810126
24744 10345317.5275053
24745 11240603.842048196
24746 12151068.513423689
24747 12938059.942347042
24748 13643941.369484894
24749 13989688.3884713
24750 14411173.816296956
24751 13748217.02545291
24752 13425452.90318763
24753 12560690.54349563
24754 10991664.47891098
24755 10641830.813304884
24756 10321769.715523222
24757 10021020.663929613
24758 8486818.822072836
24759 8254061.980569833
24760 6882171.91791863
24761 6715661.749449812
24762 6582212.675044261
24763 4933202.123919598
24764 3819497.6964818775
24765 3686645.9739160878
24766 3546866.0789606813
24767 3407391.5103639243
24768 3259498.798572995
24769 3112344.898382704
24770 1839794.9029533807
24771 1765008.3892785807
24772 1689829.3197802557
24773 1640888.2414013632
24774 1601305.9219698408
24775 1564936.0146363534
24776 1572208.3148888876
24777 1582280.9115570055
24778 2398313.4119392517
24779 3085609.8646027176
24780 3044602.044658843
24781 3945878.055867152
24782 3835092.274311317
24783 3746842.0148895443
24784 3672367.304387484
24785 3586074.2626352017
24786 3562486.0002158843
24787 3056254.460897936
24788 3079577.648333566
24789 3156027.755370907
24790 3273403.0940920818
24791 3451837.469608911
24792 4427088.814282969
24793 3538990.9458422787
24794 4696255.936358664
24795 5515871.765061235
24796 6474775.648020903
24797 6615755.8039796585
24798 6859848.220599069
24799 7126560.198691891
24800 7353732.707677646
24801 7627839.5163362725
24802 7900091.556187996
24803 8125108.629391864
24804 9616209.674847826
24805 10709756.787919108
24806 10643630.77625474
24807 10564407.665125396
24808 10431817.225790702
24809 11202814.51586099
24810 10255816.459246801
24811 9918979.494454378
24812 9557722.81459409
24813 9195326.960173192
24814 9090480.626142247
24815 8678685.431990465
24816 8293577.47096579
24817 7963896.032389048
24818 7678228.425637105
24819 7433148.546424465
24820 7096304.459028025
24821 7454941.94930232
24822 7214983.730323371
24823 7132096.904901637
24824 6899955.735268979
24825 6024289.5562318945
24826 5734889.484268999
24827 4845856.455448114
24828 4623676.76181715
24829 4576919.482201613
24830 4428319.137308369
24831 4368955.971842419
24832 3838607.566360177
24833 4457684.395610492
24834 4532762.985001228
24835 4707008.902764759
24836 5048381.05613631
24837 6001172.124481937
24838 5866670.435047334
24839 6321119.300279487
24840 6832558.436204762
24841 7077396.274350784
24842 6577619.174174197
24843 7790677.933290211
24844 8469461.71054063
24845 8707092.600820206
24846 8966390.16747278
24847 9281933.551444301
24848 10879433.40735277
24849 12074225.437694894
24850 11938835.514903229
24851 12030436.248908445
24852 11583690.081583755
24853 11397399.917872887
24854 10586646.299295891
24855 10311401.976667266
24856 9948240.95756143
24857 9655145.715389937
24858 9444256.211500606
24859 8809634.662928928
24860 8769529.13629937
24861 8788592.82486479
24862 8865297.864004087
24863 8601828.761877568
24864 8780235.094236651
24865 8948443.939726563
24866 9154124.810486978
24867 9301938.055436753
24868 9427748.409794357
24869 8517168.48166583
24870 8564187.739206681
24871 8567846.546338724
24872 8632988.211124634
24873 9545094.486866394
24874 10163834.561139585
24875 11312513.2943806
24876 10870099.160379266
24877 11163061.898978928
24878 11224317.059796521
24879 11362726.87403282
24880 12079222.110315045
24881 11842713.017853016
24882 11537334.084373152
24883 11111863.544246368
24884 10171154.260642802
24885 9750628.331229948
24886 9419553.859551199
24887 8347646.832919193
24888 7247519.665502326
24889 7111383.2450328255
24890 6253318.33344793
24891 6128183.817023309
24892 6042439.596669976
24893 6000325.101248135
24894 6037992.405354457
24895 5243955.000882468
24896 5329142.081238614
24897 5620551.979349297
24898 5662873.472703027
24899 4518021.281021926
24900 4488096.996303839
24901 4446777.015194675
24902 4459056.680476312
24903 4493653.459639611
24904 4530900.20654174
24905 6152943.233610776
24906 6182994.5071246615
24907 6157320.648396213
24908 6608612.027188682
24909 7186537.627927793
24910 6355049.943247581
24911 6176700.896100144
24912 5986053.687612358
24913 5800855.711562796
24914 4955127.9455710305
24915 4788463.23876084
24916 4653817.24506012
24917 4578864.703130477
24918 4589623.16551032
24919 4671622.016071086
24920 3883016.6952330777
24921 4041746.167322001
24922 4256178.141846457
24923 4520498.8857491445
24924 5964445.173252471
24925 6318810.749451232
24926 6627029.594416712
24927 6877608.2941549355
24928 7014932.562490278
24929 7085205.032647071
24930 9114383.803536333
24931 7981219.571024649
24932 7710775.909790413
24933 7377554.359274995
24934 6995476.00755651
24935 6553169.35724991
24936 6113727.865739629
24937 5678216.101072661
24938 5243958.1071994975
24939 4897559.902534504
24940 4630995.604083729
24941 4417999.3869819315
24942 4290195.529055703
24943 4259717.675547806
24944 4232038.193416256
24945 4233566.26371748
24946 4290371.563430977
24947 4926641.179446613
24948 5016727.361056794
24949 5107645.733832898
24950 5472403.358586575
24951 5546052.3775088955
24952 5647415.546624785
24953 5768565.055519397
24954 6791469.097783928
24955 6913353.26484758
24956 7038273.655167286
24957 8753782.458218418
24958 8834779.609503713
24959 8918769.769343643
24960 8958077.673663864
24961 8994151.844825974
24962 8475799.105350759
24963 8414554.696761629
24964 7581061.162901506
24965 7565737.052329651
24966 7551937.144487615
24967 7516881.009144549
24968 7647779.914458278
24969 7607924.949166521
24970 7620498.566183602
24971 7697417.504731229
24972 7418218.918300676
24973 7306550.299593493
24974 8075950.0581418965
24975 7721269.397642159
24976 7550292.371021898
24977 7237734.385268534
24978 6949885.70468451
24979 6639753.844863242
24980 6350347.547866065
24981 6078353.606874567
24982 5846286.218254819
24983 5694384.75848745
24984 4990340.938123508
24985 4945822.608248008
24986 4962436.489668054
24987 5023935.858168134
24988 5134300.205024599
24989 5947246.934146535
24990 6120295.032948503
24991 6338511.493718164
24992 6618592.3894295
24993 6751557.113669575
24994 6937887.964860966
24995 7092516.867367561
24996 7303204.845338106
24997 7450599.377606761
24998 7626036.7739402065
24999 8591693.542716118
##END=